c Random 3-SAT instance for Grok-beast 2.0
c 10000 variables, ~42600 clauses
p cnf 10000 42600
8674 9575 5912 0
2144 2880 -9620 0
1619 5611 -7316 0
-8779 1918 -1367 0
-3695 -5750 -2249 0
-2827 -6406 2012 0
-5553 2491 -1234 0
-4556 -5121 -3037 0
-7728 -1871 3611 0
-2459 -1631 6422 0
-1144 -3405 -4856 0
-9100 8823 875 0
-541 -4286 7125 0
-6020 -6672 7782 0
6960 3069 -3805 0
-1667 -7864 -8770 0
1328 -5471 7465 0
1497 -6712 9662 0
400 1773 -7021 0
6449 -5014 3941 0
-5445 9055 6216 0
5797 -8589 -6736 0
-963 -5078 5318 0
7576 -7828 -4536 0
-5731 4234 -6113 0
-7822 -6879 5056 0
-1496 7573 7105 0
2187 8975 -9251 0
2803 -4272 2161 0
-2129 3344 4189 0
-7027 1581 6093 0
8578 2285 -8951 0
7196 7641 2629 0
-395 -4236 8793 0
-6006 -5598 -9238 0
-5100 142 9980 0
-5392 -7217 9381 0
3586 -7917 -7820 0
-6696 2639 8708 0
-2883 8852 7969 0
-1371 2058 -3825 0
-5963 -5793 -1736 0
9130 -1047 5325 0
-2310 -4690 4756 0
2112 -7345 7949 0
3718 -4997 -4778 0
-2678 -9944 -2909 0
-2352 5902 8166 0
-4141 983 -7103 0
-7546 -5382 -8139 0
3268 8004 -2847 0
-6592 2896 -7572 0
4785 -4204 -4249 0
8307 4277 7864 0
7060 -1916 2873 0
5169 4570 -6865 0
-5668 -844 9962 0
7542 3225 4563 0
-3935 -4901 -2703 0
-9212 7212 5551 0
341 -4688 8371 0
-3048 7004 -6679 0
-4999 -5085 -1749 0
7470 7204 584 0
6124 -9747 -7160 0
-3374 3096 -3541 0
2354 -6409 8462 0
8859 1383 7949 0
7821 4727 -4536 0
7240 -1885 -2983 0
7424 3320 2696 0
-5420 -9640 -7902 0
-6580 -1581 -7791 0
-963 9264 -2063 0
6168 -3493 -7612 0
7156 -2876 -6737 0
7375 2851 -7855 0
638 -5369 -6299 0
-7084 4899 -629 0
-7680 71 8829 0
496 975 -6625 0
-9442 -4231 2285 0
3384 -5553 4882 0
6244 4304 -3593 0
7753 1668 -3755 0
-2485 4333 9475 0
4891 2011 7722 0
-2801 -5669 2029 0
1002 -6253 3865 0
449 -3721 1790 0
3911 -5152 -3931 0
-6159 -9479 1271 0
6553 3372 -7973 0
-6357 8419 6207 0
5894 8285 -9631 0
3428 1751 -1412 0
-2297 -7859 -7844 0
3829 9434 5279 0
659 7843 7063 0
1389 -7698 -7582 0
4517 9669 -3063 0
3391 1639 -2286 0
-547 -2491 6826 0
-4765 -4458 -3676 0
6704 7230 -7970 0
-3535 -772 -4942 0
6404 -9474 1840 0
-4137 -1666 3457 0
-3181 1613 -3513 0
3870 -3311 -486 0
-5092 2569 7873 0
6380 796 -504 0
-2617 6977 -8273 0
1905 9064 8391 0
9573 938 1183 0
-2898 5336 8932 0
9982 -4558 -4742 0
-3160 -1056 2022 0
4610 -4323 7173 0
-3620 2602 -8042 0
-1927 2154 -6134 0
-737 -7522 3882 0
-5371 3126 -8428 0
-215 3766 -9968 0
2653 6313 5589 0
-1349 2817 3242 0
-7729 2115 4044 0
-219 -5941 1643 0
-4180 2075 8004 0
-6465 -8383 9115 0
-543 -4982 9074 0
6592 1262 8389 0
7054 -3256 -265 0
-2035 -1991 5899 0
-3447 -3893 -917 0
5570 -2999 7543 0
2119 1367 -7416 0
-9240 -6491 -8138 0
-8457 -3931 274 0
-4010 751 7784 0
6437 -9627 1076 0
8998 -4786 -4073 0
-8280 6694 2772 0
42 -5170 -1306 0
6261 522 -6350 0
5067 4276 2920 0
3913 4786 4001 0
-2368 8992 4624 0
-1991 -8789 7927 0
-864 -1957 -2984 0
-2308 -8681 9172 0
3984 -4590 1980 0
5748 1331 5584 0
-5984 908 999 0
-5618 249 -6918 0
-3567 2567 -387 0
9991 -2542 1471 0
-8185 -6836 3953 0
-8184 -3160 3174 0
-4721 -4024 -1148 0
-4487 -7033 -994 0
-646 -2040 9581 0
-8576 9662 -2579 0
-4425 -5652 -4363 0
-1462 -43 5952 0
5317 1079 -5164 0
-9563 -7074 -8684 0
5654 4680 9171 0
-9556 -7316 9615 0
110 1193 6650 0
9824 8089 9004 0
-5185 9541 -1162 0
-5394 2271 -5801 0
-9699 -1443 2226 0
8825 -8920 -6865 0
1797 -4790 -8450 0
-7660 7574 3424 0
-5766 9744 -8283 0
5372 -6945 -307 0
97 -699 8743 0
9124 -6735 9709 0
1562 -4618 -3896 0
-2018 6683 8278 0
-1754 3353 6389 0
8457 -3304 -4745 0
-1224 -2584 -3413 0
-3021 4251 -7758 0
3440 4769 -6214 0
-6147 -1963 -4482 0
5543 -3015 8311 0
-9025 -2741 -8631 0
-5795 5488 -4776 0
-5064 7716 -5860 0
-6919 -6752 1641 0
-9941 -3988 695 0
1082 -4164 6181 0
6881 -6657 2500 0
-5857 4809 9380 0
1103 7240 -6106 0
-4227 1226 2331 0
1658 -1681 90 0
-2213 -3416 -9977 0
-9558 677 -5658 0
-302 -5927 -9004 0
-215 7692 -9269 0
6919 -3508 -4630 0
-7576 -6764 3409 0
5434 1173 9304 0
-1830 -9925 1004 0
8093 -5439 -4257 0
-2914 -328 4761 0
-139 2697 -3658 0
-865 -2005 2506 0
5807 9590 433 0
-833 -5773 -744 0
5666 -1511 -2866 0
-6946 -6575 -9632 0
2153 -4488 -1400 0
6987 -3911 -3118 0
3461 4819 4182 0
9339 -4435 2509 0
-6056 -9628 4463 0
5321 6296 8157 0
3828 4313 -4938 0
-9564 -5521 5195 0
7858 -8586 -1896 0
-5003 -5467 -8015 0
5639 5638 -2511 0
2745 -2321 4557 0
9168 8221 -7356 0
9762 -5663 2605 0
-1066 4283 -3044 0
8743 2770 -2051 0
-943 5863 -408 0
-1537 -2245 -6795 0
8572 4138 -5455 0
-5133 7272 -2462 0
-5583 -8296 9447 0
6690 4771 -4390 0
-6559 3930 389 0
4363 396 1868 0
8976 7529 -2121 0
-5226 -5381 3346 0
5707 -9591 3355 0
9312 5156 3660 0
-2848 -3992 -1246 0
-627 6056 -2432 0
9589 1243 5654 0
-3025 2675 -5523 0
-4269 -9077 7533 0
8200 -9500 -7085 0
-2472 -8305 3649 0
-3897 -3255 -2530 0
-8133 8931 7614 0
-5608 -5596 364 0
-902 3893 8523 0
-3552 8722 5929 0
7943 -7963 937 0
-9344 -9691 -9795 0
-9840 -10 6624 0
6357 -6533 3339 0
6349 2577 -7477 0
3937 -6138 -8191 0
2594 4719 -2211 0
-5642 -3276 -6784 0
6366 2091 7059 0
-200 4123 -4309 0
3335 -6099 6366 0
-8665 -330 -2800 0
4812 1642 -598 0
3270 -4844 1539 0
-8737 5231 4847 0
-4906 7690 9821 0
2825 -416 -9273 0
-7999 6601 -7120 0
2521 -9392 6536 0
-4029 -8781 3025 0
-748 9116 -6946 0
9746 -5055 3351 0
-9811 6561 3611 0
9969 5378 1724 0
5120 2828 6337 0
6836 -4982 -2830 0
815 3610 1539 0
-1416 -9349 -2372 0
-6254 -6953 1687 0
-8513 9090 3612 0
3427 -5351 -1969 0
-3758 -3469 -4352 0
-8877 -6035 -2062 0
-8980 1173 2000 0
6168 8195 -905 0
3409 -2521 8612 0
-3237 -7145 -3651 0
2572 246 3340 0
-3581 -5193 5151 0
-3661 7329 6928 0
744 -919 -524 0
5386 6453 1653 0
-3264 5929 5438 0
-1103 -648 881 0
6496 -7487 -6990 0
-1747 9146 8740 0
-1390 6108 1127 0
-7094 7732 -6292 0
4034 -5169 -2463 0
-3237 7774 7233 0
-9999 4154 3334 0
-7379 8023 -3319 0
-2378 -8924 5689 0
-9301 6235 -5458 0
6862 -5661 2067 0
-9048 -3976 6339 0
7031 -6834 8092 0
-8957 -4132 6964 0
2397 -3088 9417 0
-3292 2725 -7396 0
-9318 -7044 4510 0
8080 2268 -4678 0
-3383 4912 -3444 0
-8491 -5213 -7206 0
7016 7954 -9009 0
7409 9202 -355 0
6885 -9073 1517 0
8149 7730 6955 0
-2996 6869 998 0
6236 -913 -9063 0
3888 -8323 6621 0
-8940 2451 6847 0
-5851 417 -3262 0
-7515 4072 -6964 0
6001 6916 -5316 0
9491 4715 7942 0
-943 -4051 -4041 0
7766 -2375 7774 0
5062 4958 4136 0
7885 6458 5815 0
5887 -1637 3402 0
-7704 227 -8476 0
2162 -6207 2824 0
-1531 -6706 4366 0
2413 8888 9893 0
-2047 8430 -6933 0
9288 7400 2413 0
129 8495 641 0
-8187 -2604 -8843 0
4915 2535 -4093 0
-3735 -1519 -1187 0
-4781 -6299 -1909 0
-8518 -6663 8569 0
9854 -6288 9172 0
-1604 -4022 8140 0
-4862 -2717 -2095 0
-1199 2712 -691 0
6861 2670 9516 0
-9495 78 -4129 0
-632 -7610 -5468 0
3739 -1680 -3235 0
1852 -351 3577 0
825 923 -4246 0
-5021 6007 -7975 0
-6544 -5833 1680 0
748 9384 -4103 0
2372 5774 -9797 0
-2661 -3828 -6856 0
7033 -9691 4450 0
3952 -20 -6957 0
-9779 -9996 -8846 0
-653 8207 -7514 0
-5068 -7744 -9554 0
-8890 4526 2539 0
-8326 -4281 -302 0
3680 -4409 8569 0
-3216 488 9897 0
7068 -1264 8990 0
-1706 9703 -9733 0
2819 -5663 -5346 0
2387 -676 -1969 0
6435 -6017 -8277 0
2724 -3060 2413 0
-7549 7495 8797 0
-7843 -2969 -1495 0
1754 -4233 1012 0
-1934 7019 759 0
5730 -925 5193 0
-8672 -7591 -9472 0
-8909 -813 -4837 0
-2519 72 -9596 0
-844 8551 -7217 0
-6275 -1891 855 0
-8714 6012 -9906 0
8210 7853 -5572 0
-7061 -5319 -390 0
8910 6121 -3140 0
5033 -6423 -5768 0
-3726 9069 -1800 0
3040 1854 7278 0
7884 3100 5993 0
5080 4973 4725 0
5514 -3079 -1621 0
6492 -7300 -5332 0
8415 -865 3393 0
-9029 4728 6037 0
4676 -3669 942 0
-9166 -5283 9902 0
-8960 -5553 -7516 0
5596 -4277 -6064 0
-9523 -9959 8103 0
-8086 -8547 6377 0
-2505 -1551 4427 0
9483 -9704 -2483 0
4931 6070 9937 0
-6206 -267 -5402 0
-5218 -1765 -2 0
3159 -162 -1604 0
3313 6852 6593 0
6441 -5301 6716 0
9734 5961 8913 0
2533 -2768 2213 0
-3914 -7986 9901 0
2743 -9275 8044 0
220 -1363 814 0
783 -2312 -2072 0
-845 5017 5134 0
5263 -37 7454 0
-8147 -8776 -1092 0
-9440 -829 594 0
828 8155 4130 0
-2456 -6217 -8654 0
-8365 6807 3153 0
-3345 982 -4915 0
7693 -2684 899 0
3848 -8190 5716 0
7003 9462 1758 0
2769 5699 -1991 0
1287 1941 7481 0
7362 -5538 8410 0
4856 -586 -1722 0
-7236 -9991 932 0
760 1770 9420 0
-3490 -6715 7044 0
2052 -243 -8208 0
3549 -3683 -6584 0
5666 -4704 -215 0
-3958 2832 152 0
-7209 -9320 3996 0
-4032 -3897 5987 0
7118 -5581 -5564 0
-4613 7330 5801 0
-1847 7956 6046 0
-7361 -5644 -6671 0
-2529 2605 6282 0
2703 -1768 5826 0
360 -7424 -3391 0
138 2454 3205 0
8332 6038 -8311 0
-6399 -858 -7827 0
-5595 -3381 6380 0
-1721 -4846 375 0
-6168 -39 2433 0
6855 -4409 -9041 0
6263 7425 763 0
481 -1723 -9047 0
-3866 -8039 -804 0
9372 -4064 8202 0
-8344 2724 -7809 0
6617 -3875 -7973 0
-875 8095 3365 0
912 4812 -2648 0
9117 5929 9491 0
-3919 -7835 -9867 0
-1797 1556 1393 0
7921 -5679 -9608 0
6388 9173 1384 0
-6502 -6981 -9805 0
-8560 4603 -5559 0
-1653 753 8778 0
4984 -571 8301 0
-6283 4655 -3381 0
-8373 -5113 -7396 0
1921 1962 1093 0
-7235 -1053 -4647 0
-5134 64 -9012 0
4755 -9605 9253 0
8166 -5668 -6820 0
1034 7493 8046 0
6413 7000 -8448 0
4267 3018 9321 0
-1938 -4543 -2037 0
6447 1816 -2142 0
1113 8419 7625 0
-2441 7607 686 0
-525 4581 -4817 0
-7899 716 -6295 0
9403 1267 -6203 0
-7034 1191 -9184 0
557 9497 -3748 0
9006 1511 7192 0
-6116 3857 602 0
-2600 3405 -1054 0
-7806 -8997 4833 0
8758 3308 2176 0
1667 -9217 -2901 0
-3016 -2382 3212 0
-5875 -1087 2464 0
6845 1471 8362 0
-3826 -4864 8443 0
9293 5869 -4802 0
-1791 4654 -9549 0
7230 6808 -5818 0
-8309 6617 3534 0
6043 -9245 5801 0
-9953 -7323 8564 0
-2141 9009 1445 0
682 3648 -9144 0
6539 -6202 5383 0
-9539 5975 -1637 0
4047 6376 -8337 0
496 7513 -6694 0
-1166 -2979 5205 0
-1046 -654 9561 0
-1484 -2927 -690 0
-3104 5740 -2442 0
-6855 9427 187 0
6571 27 -458 0
-5167 5872 8375 0
13 258 -4200 0
2035 7255 -2492 0
3784 -9312 -9828 0
7322 9777 -1152 0
-7216 4840 -8608 0
3393 7874 -8137 0
-6801 -1650 -4540 0
-7556 -9976 -2302 0
-7325 -1168 -2858 0
3714 -1439 -4580 0
-9542 1451 5120 0
7542 -4637 9988 0
-4635 1848 5752 0
-8726 6194 4791 0
9479 -4844 1714 0
-9914 -3858 -2574 0
-6708 2196 -2081 0
-3214 -5079 5568 0
-7354 -3141 3886 0
8617 6514 7400 0
1329 5629 4368 0
-5446 -6320 5701 0
-9278 6352 7489 0
-1840 7453 -6070 0
-7375 -7219 161 0
-5323 -3848 3024 0
8118 2165 3908 0
4757 -4259 9205 0
1072 -8620 1034 0
-1973 7545 -2553 0
323 -4360 -3869 0
9230 -9477 -4488 0
3358 -3174 5188 0
7624 6638 4549 0
-26 -5489 -1311 0
-8517 -7475 3004 0
-1073 2258 -396 0
4607 9461 3727 0
3812 9136 -2280 0
-1739 -2606 7442 0
718 8979 682 0
4557 5608 -8371 0
9644 -5167 -413 0
-9453 5385 7551 0
-320 2296 -562 0
8610 -950 -9624 0
-9393 -4474 6709 0
3923 6980 -2345 0
-9108 -2930 8424 0
-2561 -6242 -9800 0
-3809 491 -3990 0
-3950 -32 2579 0
1603 4344 1919 0
-7532 -8984 -1332 0
6017 8705 1201 0
-2503 5358 6124 0
-9754 -3170 1712 0
7386 -2283 8805 0
-7168 775 1690 0
-1403 -6889 557 0
-9353 2572 5061 0
9142 6393 -6609 0
-3259 -8819 3741 0
-8935 -5758 583 0
8732 1880 -9662 0
-229 -3663 1639 0
3513 -2400 5952 0
3097 -6239 -2688 0
-195 9542 1860 0
-6319 -5147 -967 0
7435 -3931 8394 0
-9888 9884 8024 0
-432 3273 -1607 0
-2767 8550 -3955 0
-3847 5161 2994 0
1123 -5637 6154 0
-962 1172 9737 0
6226 3666 -6722 0
-6033 3803 -5151 0
9509 -8050 6265 0
-3688 -4545 1513 0
-2009 5146 7737 0
-6774 -925 -1701 0
-5507 8354 6120 0
2214 5498 7749 0
7897 -7943 -2749 0
-6075 6691 -9689 0
7038 8519 -3694 0
8249 -9278 874 0
-3446 -9720 2673 0
6610 -3360 5320 0
2032 3234 1640 0
-8515 4724 -9706 0
-3159 -9963 8529 0
7423 929 329 0
-6939 1752 -3115 0
6161 1045 -800 0
9105 -9872 -6940 0
7683 2542 -9090 0
-8606 1827 5104 0
-821 -8044 -2417 0
5511 3098 -3110 0
4984 -773 -4498 0
6638 7914 502 0
5935 -2391 4914 0
1886 -7584 -7465 0
8450 2902 -6052 0
-9493 6532 -9022 0
3648 -7182 5027 0
-7376 -1566 -6212 0
-77 653 6779 0
2389 4506 -5229 0
7255 1246 -7958 0
-2963 -6236 -2728 0
-6707 -8929 -4070 0
-8442 -9561 -8141 0
-253 -8172 8457 0
-1382 1415 9315 0
-1809 6290 -4117 0
-6839 5829 -5087 0
-5115 -6868 396 0
4891 7211 -2197 0
-4067 9724 9897 0
4418 -3628 -8954 0
579 7597 -5551 0
-5383 -5561 -1937 0
-8809 558 169 0
7906 -1212 629 0
7445 2345 7387 0
5732 -7619 -2300 0
-9571 7993 -228 0
9260 344 3947 0
-2897 7742 5715 0
7592 -5063 7386 0
5155 -7154 -688 0
3044 9851 6239 0
2517 262 3724 0
7513 54 -8503 0
-2068 8760 3017 0
166 -4405 605 0
-2913 -8910 -555 0
-7474 -3846 947 0
-7860 -5829 -9895 0
-8055 9803 -7404 0
4969 -3496 -635 0
-2546 8476 -3668 0
5472 5680 -4209 0
3214 -7042 -9441 0
-7372 5942 -6459 0
7590 -597 9824 0
484 -5551 -9745 0
9544 6977 -5843 0
-5782 -1290 -7117 0
-7645 3959 3858 0
7771 -5615 9934 0
-6779 1095 3792 0
-9903 -5017 5147 0
-7096 -9736 8516 0
-812 -4851 5702 0
4482 3337 6616 0
3811 -3313 9908 0
-226 -1516 4330 0
-3807 4717 -5559 0
-6613 3132 -6398 0
676 4714 4063 0
-7460 -6173 -8886 0
-2206 -1706 2231 0
5861 -3101 -2540 0
8080 -8696 -6411 0
-8297 -7264 7661 0
-2436 -9484 1977 0
9884 -5068 -3313 0
5643 7293 -2435 0
-8720 -1370 5091 0
-3897 1122 -8521 0
-9608 862 -9205 0
7657 -4811 4696 0
5930 -2359 -7754 0
-321 9206 9371 0
8000 840 985 0
-9447 3464 -6248 0
3532 2179 5045 0
-3237 9021 -8831 0
2283 6870 6360 0
1400 -3493 -5078 0
2458 -3542 8358 0
3742 -4050 4263 0
292 2888 2222 0
1644 1388 -2882 0
-9223 9763 -5316 0
-6578 -6494 8433 0
-1548 -580 -5494 0
-8835 1305 -4765 0
3551 3217 -4757 0
7778 -9097 7049 0
3947 -5343 -1716 0
-5153 5935 -4607 0
-45 -295 -9259 0
3640 -8224 3947 0
-8811 5682 2965 0
-3384 -6141 979 0
9537 -9303 -368 0
-3024 -978 -1027 0
8864 8711 -7586 0
5362 -1224 -5316 0
3229 -372 5712 0
-6267 4372 -1013 0
-4531 -1629 -4321 0
-618 -1783 -6681 0
-2241 -1382 4611 0
-1160 -244 -8717 0
-2365 1637 9508 0
6204 -4760 -4639 0
-1042 5811 -4959 0
9555 -634 5768 0
627 512 4477 0
3672 -6149 -4154 0
3444 -4864 2151 0
2593 -1839 8453 0
-9214 9860 5589 0
-7694 8258 8790 0
-4005 6712 -2984 0
-29 3181 -1110 0
-6084 7965 -2795 0
-6239 -5199 -8061 0
9929 -8740 8088 0
4963 5214 3810 0
-7418 -9930 5075 0
7394 120 1911 0
7237 -6556 442 0
-5825 4866 -2843 0
-9491 -5253 8108 0
-9278 4169 -9200 0
5681 8693 -7246 0
-4090 -9414 9030 0
1023 -3009 -4288 0
1398 -5571 2840 0
-5560 -8548 2328 0
4161 5161 6255 0
4134 3226 9107 0
-5860 -9301 -1069 0
7288 -149 1480 0
-5659 8036 -1733 0
-4211 2303 -2543 0
4168 -883 6657 0
-8850 -4741 -4317 0
-6103 -2246 -9237 0
-2278 -9988 4260 0
-6108 4447 -9104 0
8225 6354 -7848 0
-6085 -3390 9805 0
-6908 6986 -6692 0
1784 170 -1302 0
-7051 -3950 4340 0
-8169 -6837 -8760 0
5072 2162 -7843 0
-3520 6932 2470 0
833 -229 7393 0
7576 8614 -4489 0
7362 -9134 2824 0
-7639 -754 7131 0
-1408 -1528 -9063 0
3731 -9440 5767 0
4116 652 7574 0
-1933 6568 3978 0
-280 -5943 9997 0
7316 6967 -9193 0
-2961 5820 8086 0
5437 -5595 682 0
-313 -5139 -6905 0
-4598 -9463 5663 0
-5289 -9681 5449 0
3021 -8370 -5122 0
4507 8452 -4222 0
-3346 4487 -2743 0
-6523 6411 9368 0
9775 6101 9494 0
-5621 3468 3599 0
-1890 -2857 -5860 0
4465 -4761 -9897 0
-8403 2002 7369 0
7435 1723 -8066 0
2009 -3147 2824 0
-8529 8015 -1352 0
4558 5448 3995 0
-8367 -1906 -3210 0
-4702 2664 8238 0
8317 -4611 -5812 0
-1272 -3136 -8977 0
-9685 8444 3636 0
-7804 4835 -848 0
-7352 6495 3902 0
-7740 -8848 2915 0
-7143 -1536 2769 0
-6910 -9998 6597 0
637 -311 -478 0
-1369 -6583 2003 0
-4984 -7776 -2303 0
3463 -3536 8259 0
-7374 -9137 -3560 0
9773 -9009 9890 0
-2420 -6726 -3444 0
-1103 -5655 -2027 0
5867 9988 -7501 0
7100 2698 -5481 0
7310 -2508 -2019 0
-9694 701 9394 0
-7245 6080 5572 0
6907 -2763 -6869 0
9789 -2412 -9062 0
1348 -3257 9339 0
8138 9398 -3886 0
-1708 -8811 5182 0
-8711 5004 1366 0
-1802 -6253 1991 0
-9988 -5092 -9227 0
-7787 -4968 -698 0
466 3452 5399 0
7401 -8771 9667 0
124 674 -1464 0
-9015 227 -8200 0
-3350 -5393 -3501 0
6663 -5183 -4611 0
7293 9998 -3814 0
-3712 4258 -7327 0
2139 -4743 -2225 0
7915 -2617 -9719 0
7462 9476 -4549 0
2284 -8477 -9610 0
-7722 -2371 -659 0
9272 -9253 8705 0
-7239 3175 230 0
-8563 -4176 -89 0
-7695 275 1847 0
4087 -3386 5750 0
-4539 -5762 6230 0
-1191 -7296 -2073 0
-59 5928 9516 0
-5369 9519 -4672 0
-8680 -6854 -6111 0
9918 -9580 -3412 0
8643 -1884 3535 0
-2143 3441 -157 0
-6974 1605 5295 0
9125 2244 -1841 0
-5255 -9679 -8433 0
8381 2269 -2019 0
4872 -6594 -9540 0
2190 8545 -6199 0
-7601 -2605 3511 0
2759 -2187 4620 0
3707 2139 -6884 0
2529 -9355 -4855 0
-7537 4136 2132 0
8587 -6137 4702 0
-1007 -6520 -7011 0
-8471 -1344 -9662 0
3512 -942 5995 0
-7275 5037 -8497 0
-8430 -7344 7816 0
7983 7514 2402 0
5353 -2915 -585 0
-9302 9992 8853 0
-2383 3108 -7058 0
-4376 -7684 5074 0
6190 -6405 1282 0
5667 8553 1035 0
-5654 1991 6595 0
8094 -8544 -8216 0
-5514 7202 974 0
-3319 4531 -6281 0
6131 -2825 -2709 0
9346 -6084 3543 0
3981 2211 -9739 0
5519 2174 2904 0
-4038 -9530 -6042 0
1269 -479 1212 0
580 4465 -8864 0
-9382 4849 -4918 0
-1574 6828 -6079 0
-6818 5049 -2360 0
7269 -3310 935 0
-3256 4955 3987 0
1495 7728 -7782 0
2419 8110 -9633 0
-3684 -742 -1512 0
8735 -9695 -5660 0
-9779 -4134 -2757 0
4749 -6713 104 0
7194 8513 -1304 0
-7031 9033 6103 0
-1913 -2452 9770 0
-8096 3840 -5788 0
-713 3961 -8479 0
1385 1973 1312 0
5186 5596 -8331 0
9837 6403 -2346 0
9819 -9922 -7299 0
-8832 -6637 3840 0
-779 1294 6569 0
-5720 2604 8642 0
1951 6758 -4186 0
-3777 -7801 9535 0
7888 -3929 -3387 0
-4146 6414 -5720 0
-6124 -5646 344 0
5579 -7243 3732 0
-4573 -1664 -2418 0
3861 4766 3286 0
-2450 6258 5417 0
-8927 -6977 452 0
3415 -2285 -8416 0
-5331 -7036 -4654 0
-1034 2151 -4508 0
9404 -8955 -935 0
-5053 -4907 -5111 0
7043 -2565 -2104 0
-7334 -4799 6726 0
1320 7503 -3662 0
-6431 -6597 5153 0
2499 4807 8875 0
5943 6542 -8692 0
-8618 9505 2860 0
7831 -2667 9421 0
9443 -5791 8218 0
-9602 -4655 4533 0
-5455 673 2508 0
9493 6760 3791 0
9838 -1619 7139 0
-1857 3900 -9701 0
5900 1199 6155 0
7559 2059 -5897 0
2065 5320 -7352 0
5576 7187 -5355 0
302 1728 9661 0
-4157 9843 -7646 0
-9348 2276 5807 0
4474 5042 3052 0
1144 -2145 -9367 0
1761 -2850 5400 0
-3364 -4147 3064 0
-1508 -9440 8184 0
9959 -7310 3576 0
8387 -9736 -6464 0
-7038 6082 3494 0
3091 9216 -7638 0
-8183 5476 8939 0
-2225 4787 8811 0
-7699 -4913 8443 0
-7574 -9769 2247 0
-2063 -3885 2165 0
4763 2521 2177 0
-2600 2118 -2559 0
-2563 1077 -1619 0
6834 -1779 -1915 0
8377 1483 6983 0
77 5708 1685 0
-1960 8026 2359 0
-8180 -4569 1362 0
9789 -560 -3838 0
-5436 3056 -5437 0
5149 8365 -6519 0
5783 1331 9381 0
7121 -9743 5912 0
-9360 5414 -2191 0
7029 9447 -8064 0
5451 1228 7940 0
-9802 -3440 9899 0
-7950 -5140 -3656 0
6073 -4182 8977 0
5858 -825 -4213 0
1897 7505 910 0
-1508 7013 -4871 0
7853 9177 -1697 0
9242 4764 -8914 0
4855 7091 9261 0
-7107 -4524 -482 0
-9531 2905 4406 0
-2860 -1299 -5751 0
-6944 -1521 1093 0
6362 -9349 712 0
4749 -1937 3387 0
-9584 7923 4502 0
9144 -7365 -950 0
1404 -2885 -9022 0
8042 -3446 164 0
-5804 4509 7216 0
-9310 -8186 -2104 0
-7768 -7378 5519 0
-1959 294 -1229 0
-3414 4949 -5415 0
5263 3560 6910 0
-2574 7801 946 0
-1733 8214 6157 0
-9086 -1218 3785 0
9018 7299 5152 0
9079 7410 2522 0
7580 9599 7592 0
-490 -806 -3213 0
428 -6594 -4217 0
5631 6478 2051 0
-5704 -7089 -5998 0
-1684 1796 -3130 0
1391 4375 2006 0
-73 9522 -2562 0
667 5086 5448 0
6259 6724 9137 0
-7516 -5042 1743 0
2082 7443 5035 0
5951 -7209 -4576 0
6374 -35 -1052 0
-9351 7405 9887 0
8137 4279 9005 0
-6486 -8484 -4346 0
2700 9050 6865 0
-3709 -896 -4175 0
-3811 -8799 -4089 0
2613 -3963 6572 0
9643 8460 9911 0
-3631 194 2026 0
8617 -8373 3215 0
-6573 -2726 5302 0
-6143 -9902 8649 0
6421 8448 1099 0
-3946 5724 8097 0
8579 -6898 -7538 0
-3991 5519 7789 0
3361 1942 9845 0
-925 -4999 6495 0
-5938 -6458 6587 0
484 -5344 -7029 0
573 -9984 -3482 0
507 -4488 -6517 0
1906 7335 6647 0
-851 -1116 -7241 0
-1110 9373 -5338 0
-2812 7858 3821 0
-2709 9810 5618 0
734 -988 -5897 0
-8472 -5660 7327 0
-3751 -3084 -7722 0
-7154 814 4729 0
9384 895 -5261 0
2446 -6124 4721 0
-6484 972 -6828 0
-5714 -5696 -5838 0
-4931 -2815 313 0
-6843 -5686 -980 0
4654 -8655 -3269 0
-8053 -8748 -3539 0
9046 -3086 8875 0
-3725 612 386 0
6840 6846 -2835 0
-6036 -9717 8495 0
3494 -8458 4620 0
-4303 -6608 -546 0
2050 7117 -6515 0
-9861 -535 1628 0
-1202 6045 -6991 0
3524 -7148 376 0
-5648 -73 -2301 0
-987 -4393 3664 0
-7849 5169 -3537 0
-2578 -2658 2256 0
-735 5947 9320 0
-6816 7530 -8121 0
-8074 5292 2420 0
-8377 7122 26 0
-5377 -6009 7542 0
8141 -2158 -8943 0
-5094 -5023 9681 0
-9877 2042 9753 0
-1159 3501 153 0
7495 5069 -2462 0
-1465 -8057 -7092 0
-3240 -7292 8265 0
-7506 3301 -2194 0
6431 -1311 2721 0
8027 3463 2809 0
1539 1802 6393 0
-3028 7876 -5895 0
-8155 7968 5193 0
4053 -9468 -9305 0
-1584 -7709 7026 0
6007 -976 9722 0
-5386 1889 -1187 0
9549 4050 4711 0
2004 -9071 -2557 0
-1517 8410 -6582 0
1631 -6919 -5860 0
-3701 1167 -839 0
8635 -8910 -4769 0
6076 -5333 938 0
4477 -8340 5442 0
-4380 7375 9911 0
3277 8930 -3028 0
-1507 7414 -5618 0
-1496 9860 3627 0
-6644 6710 -6099 0
7105 -3048 -9302 0
2728 -9129 7263 0
-1043 1200 1075 0
-9336 -6183 -8714 0
-4823 5882 -7337 0
-3445 8262 -9241 0
5850 -282 -2043 0
9322 5496 8562 0
-6274 -1588 -9976 0
-9766 -1534 7869 0
-1685 -4795 3064 0
8030 -561 -1495 0
2446 -3982 6675 0
-6042 -6738 -6396 0
-573 -2315 5598 0
-5598 111 -5681 0
3532 -1848 -7855 0
9741 5160 1591 0
-4308 2 -3388 0
-1167 -8705 1694 0
8264 -3681 9895 0
8757 -5902 3368 0
8589 3430 7401 0
9497 8162 -8839 0
-7554 9548 5696 0
-433 -1910 -5200 0
1084 6640 -9739 0
-5154 -6784 1469 0
8840 -1581 -2116 0
-465 4390 2614 0
-9215 2473 -3834 0
-950 1533 8970 0
-5560 -8749 -9813 0
-8634 -8890 -8194 0
-7675 484 -5307 0
-4356 -1219 -4050 0
-1207 7070 8132 0
9247 5346 5874 0
4352 -1644 3052 0
-7576 9968 8039 0
3809 161 -3210 0
-9248 -7728 4804 0
9982 -4425 -4092 0
-9338 4610 -1934 0
6604 -8784 5941 0
5380 -369 9400 0
5628 -7503 -4907 0
-6282 1377 -3286 0
-7780 -908 -4743 0
-5289 -9978 8395 0
9310 -8670 3296 0
-6843 -1082 -4471 0
-6152 -5099 253 0
1196 7127 137 0
-8792 1080 4686 0
-4287 -8735 -9958 0
-2706 2708 -7932 0
9161 -7775 34 0
1436 3253 -3324 0
-230 -208 -1297 0
2443 -6846 2404 0
-8717 4197 -8016 0
-9999 7431 1054 0
-2530 4047 -8283 0
9034 -351 6067 0
-9668 7027 -3469 0
-6290 -9983 -7033 0
-6468 2981 -9059 0
-5622 -2210 -8572 0
-4958 -248 -3727 0
3017 1029 -5228 0
-1817 -1235 4931 0
-6743 -5749 8921 0
5550 -6634 -6654 0
6995 -4867 6337 0
1167 5006 -3185 0
3029 2308 -7794 0
6305 6928 -7370 0
9708 672 -7180 0
4625 1799 9506 0
6090 4433 1809 0
7492 6745 -4017 0
5127 6081 9602 0
565 6105 -7494 0
-4352 -3269 -3519 0
-8627 3141 -3194 0
-5279 -6895 2754 0
-1799 -5888 2898 0
-3779 -4687 6791 0
-8336 -346 5871 0
-212 6912 -8171 0
3943 3540 5062 0
-5456 -2475 -3356 0
9261 -7238 4121 0
-424 4150 -655 0
1156 3184 2054 0
3212 6561 -6320 0
-2936 6268 -1432 0
4558 -8486 6766 0
2190 -497 -1310 0
5616 -9965 -9166 0
5422 -742 -9214 0
7178 5535 9193 0
-6178 714 -6656 0
9853 -3437 -9133 0
2512 -8904 3975 0
7178 7863 3353 0
-5688 -7425 -5264 0
9362 743 2458 0
-9252 -6333 -4342 0
-9478 4194 3393 0
-4235 -3540 9814 0
-5376 8167 -1642 0
1253 7706 8974 0
3929 4487 9541 0
7729 -2789 -6542 0
7649 4605 -7215 0
4306 -3926 -3550 0
3836 9803 -7286 0
3483 -108 2193 0
6410 -4811 9612 0
-8250 -680 5750 0
9592 7150 2813 0
4196 -9936 1914 0
4415 -1566 -5077 0
-6279 2618 -4119 0
-7116 -2831 5972 0
894 2751 -1523 0
-4160 -1616 -1805 0
6877 6887 -5975 0
-9016 4628 8749 0
4142 3308 -7245 0
-3261 1020 -1066 0
-853 17 -8295 0
-7857 -8480 337 0
-9168 6831 -2317 0
-2935 3193 3540 0
1630 -2294 -9467 0
8308 -5007 2473 0
-5527 1934 9077 0
6451 4944 -854 0
8166 8944 9746 0
-2095 -6513 3640 0
-4621 -1576 -3801 0
-8788 135 -891 0
-8354 -5326 -883 0
-5650 6081 -8012 0
-9270 4385 -1 0
7739 4785 1459 0
1818 3040 8223 0
3127 -7379 -9740 0
-3153 6528 -6542 0
-4421 -6493 1545 0
7174 7366 8109 0
-5175 8619 -2343 0
-215 1973 8845 0
7891 -1577 -5149 0
-3631 -4427 -1504 0
4777 8045 4113 0
9545 -365 -3265 0
2552 8081 9561 0
-5592 1253 1559 0
4687 5177 -3486 0
3924 7488 172 0
4245 -9705 -453 0
3900 4688 2953 0
-5451 6157 2455 0
4098 4425 -2063 0
1118 9583 7579 0
-6491 -1108 -5596 0
7795 7819 1671 0
3030 -3914 -1424 0
7034 429 5902 0
-9137 -9381 -7120 0
9016 -2546 -8845 0
2361 4453 733 0
9604 -8912 -48 0
9377 3668 2375 0
-1789 -8413 2985 0
-247 -793 5287 0
2720 -5707 -9504 0
-2936 1046 -2695 0
-6727 -3384 -2266 0
7872 6812 -566 0
-4072 7357 -4131 0
-1697 5607 -5898 0
3819 -7098 8418 0
7775 -8343 -2329 0
-7888 8072 -9063 0
6002 168 2077 0
-3317 9900 1816 0
-1611 -1361 7426 0
-8391 -3738 -3316 0
6209 9562 7058 0
-1598 4344 -8558 0
-5648 -3862 -4157 0
-8668 -4393 5696 0
7211 5148 2276 0
-4227 7377 -8229 0
-9137 -6634 4359 0
7098 9590 -2201 0
3197 -2186 -759 0
-5976 -6496 -6982 0
3768 -1995 -3923 0
3843 3860 1177 0
-6697 153 9218 0
-8168 5619 -359 0
4624 2725 1557 0
-7965 -4890 6506 0
-8119 -2520 9412 0
-7616 8698 7219 0
6815 -9059 2052 0
4627 2767 8405 0
-9736 -5631 -3850 0
1060 2160 3172 0
9424 -1010 -800 0
209 8795 479 0
-4388 4097 6267 0
5429 8974 -2787 0
-1422 9105 -124 0
-4306 -6111 9156 0
2621 -7866 2269 0
6658 8456 1636 0
8287 -7525 -5276 0
9087 6768 -5617 0
-1395 -7456 1802 0
-4605 -9845 1491 0
3099 -4646 1652 0
2261 -4864 -2183 0
2376 4819 -3453 0
-3450 4379 2073 0
2166 8820 -1135 0
8383 -4543 -7618 0
475 -6841 8779 0
-4209 -18 -3051 0
-664 7280 -1932 0
-6124 -2879 -7933 0
5273 9626 1537 0
-2011 702 8052 0
-9454 -4383 9235 0
-4210 -2135 -5327 0
-8620 5193 -1816 0
-239 4255 3391 0
3978 9636 3170 0
592 9101 4280 0
5958 8287 -8900 0
9062 2688 -5702 0
-6472 -4944 3314 0
5121 1243 -64 0
-2411 -5423 -6494 0
-8409 -7323 -728 0
-665 -9085 -1739 0
-2415 -6242 9651 0
-6340 4386 -7916 0
4053 530 -1158 0
-524 -1004 9261 0
-8896 -2797 6443 0
8259 1465 1329 0
8852 9841 8593 0
5547 -1956 -5830 0
-7625 894 7092 0
221 -7948 -4347 0
-6603 1307 6738 0
-7006 378 9476 0
3533 4312 2662 0
-8253 -9072 -4913 0
-1351 -529 4593 0
-5656 -6999 2807 0
-6634 -4177 7210 0
3454 4587 -7224 0
-2097 3690 2707 0
8507 -6422 -8686 0
5516 -3202 -7076 0
-9302 -8257 6940 0
6462 -668 4066 0
-5030 -8964 5222 0
4709 494 5120 0
-9176 9813 -2422 0
-250 -1433 -2812 0
-3638 -1574 3561 0
9809 -5869 -8101 0
9656 8489 6443 0
-4697 808 9901 0
7281 -1958 7210 0
4246 -9398 -8546 0
-7563 -892 5871 0
1776 5917 9962 0
-3410 -51 -9653 0
1068 2113 8183 0
-9886 -4078 -9381 0
-3431 -7265 6991 0
9336 -7845 1128 0
4820 -1797 -1212 0
1805 -6251 -5588 0
-2261 -5401 7663 0
-3585 -3095 1584 0
8153 -9901 -1487 0
-6095 7762 -1096 0
-5279 3502 6745 0
2812 7254 -7723 0
-1058 5622 -8663 0
5126 1639 2524 0
678 6662 3163 0
-6049 2971 9412 0
-6879 8162 -9355 0
3218 -7054 -9488 0
-9214 -1855 -6958 0
-5550 -5375 -7622 0
1163 4562 -583 0
-1677 -6475 -9417 0
-69 9133 8006 0
-6404 5511 -9406 0
-6616 9340 -7409 0
125 5092 -6316 0
7535 689 7198 0
925 -2480 9917 0
9401 -3282 -216 0
8872 -2681 -2886 0
-4040 632 1973 0
4681 805 -9150 0
1399 3835 2846 0
4556 5507 9125 0
-7305 -2743 7182 0
9989 -6486 9414 0
-2321 -4953 -2327 0
2434 -2461 324 0
-5923 -4110 7820 0
-2030 4922 -3733 0
-4536 -280 5554 0
9315 8318 -151 0
-5841 8098 -3230 0
-6234 8555 3955 0
6726 3839 1621 0
-3580 -3448 -9366 0
188 5182 -5693 0
7801 -8472 9304 0
-3368 2744 2597 0
-5218 -9048 -4859 0
-3903 9031 -9395 0
8667 -1869 8790 0
-8701 2948 -9299 0
7215 1853 660 0
3991 -604 5272 0
2908 -7686 3856 0
-4343 6380 7572 0
-3629 -9864 -6272 0
-5034 2842 9613 0
5181 -664 2791 0
3418 5154 -2439 0
8448 1465 -9222 0
3317 -1302 8493 0
-733 -9491 -6764 0
1873 -9602 -2473 0
3459 -9342 -4717 0
-1283 6061 -3336 0
-4598 3383 9276 0
-6808 9689 -3526 0
-1034 6490 -197 0
-5273 -5186 7388 0
2513 -5889 -2918 0
-4248 8257 -6499 0
394 -3869 4486 0
-936 7923 -6229 0
-107 -4760 -9645 0
-8572 5230 -8363 0
-9895 -7918 8329 0
-2918 -8430 3532 0
9753 -6280 415 0
-9487 -7977 -9847 0
-3586 -1914 1077 0
-5282 -4950 -5303 0
-2397 -885 -7478 0
-960 707 -1273 0
-6304 -8730 -7526 0
8855 7495 -3623 0
-6219 -5626 -9206 0
-8204 8507 246 0
3306 6559 -7626 0
-505 7114 3218 0
-4811 -9831 3005 0
-4854 7537 7090 0
2030 6546 7367 0
6339 -652 -3918 0
1784 3169 4543 0
-5366 -9993 -2495 0
4405 2249 9323 0
6200 7145 7997 0
6312 3389 3020 0
-3561 -6912 -7557 0
292 -3574 -7551 0
-2117 -419 -9335 0
2005 1013 -1033 0
4067 -1157 4984 0
6424 -9195 9767 0
814 1460 1852 0
1680 -8697 5878 0
14 2580 6340 0
-4466 8789 5049 0
905 7302 4643 0
1883 -425 -4722 0
1579 -3668 -4440 0
-6947 -7249 -1739 0
1955 4023 1416 0
377 -7708 8008 0
8615 8557 -6491 0
8912 -560 -8987 0
-211 -9207 3709 0
3038 7201 -8475 0
5514 4562 769 0
6874 -291 -2310 0
-4495 7798 2166 0
-3355 679 -2485 0
-9724 7580 -1564 0
-6552 3479 -8759 0
7005 -4300 8062 0
7655 4914 1034 0
1737 -4318 -1322 0
-755 1667 6177 0
591 -3069 -3757 0
-8468 7366 9411 0
-9792 -3264 -8545 0
-2148 -2532 4295 0
3669 -9580 6962 0
-2625 7349 5970 0
-5648 -6269 -7240 0
8777 -4119 -6979 0
-1861 2662 -1246 0
9004 9945 3062 0
6987 -6025 -8292 0
6393 1132 -3528 0
9209 -3254 -2057 0
9574 -7229 3263 0
-8460 6962 -9459 0
-9174 -5203 -1629 0
-618 -8900 6268 0
-8990 -2766 -3803 0
-9252 -5521 2755 0
7555 7658 -512 0
8116 1107 8688 0
9262 1723 3754 0
-8534 9737 6618 0
-4833 -6834 -9185 0
7050 -7706 -371 0
8303 -8071 -5290 0
-9855 -6202 -3944 0
-9215 7621 7568 0
447 -1500 7951 0
-7820 -231 3564 0
405 7019 4030 0
-1614 6021 -8398 0
3248 8049 -2075 0
-1271 -6438 7379 0
8889 8037 -2191 0
-6081 -7318 -6130 0
622 -8898 -8149 0
-6843 7423 5242 0
9128 6107 8623 0
-4980 4521 7160 0
-8013 -1180 -4544 0
-4384 3521 42 0
8139 1809 510 0
-7436 -3422 -2754 0
1432 -6486 2128 0
7139 -969 -7569 0
8112 1539 -7305 0
-7680 2099 2481 0
1863 -4606 -4480 0
2208 2389 -6678 0
324 2189 -1655 0
3266 -8973 9839 0
-9016 1521 -1556 0
-463 -161 -2385 0
-6225 3482 5111 0
671 3339 -3958 0
-8994 4043 -4597 0
-6370 -3043 2552 0
8471 -9791 -3535 0
-6292 4205 -3881 0
-97 2707 -9578 0
-7660 -6777 -1581 0
-6238 -6157 -8400 0
-7259 -1734 -3979 0
903 -4384 -2815 0
3830 5330 2794 0
2725 -7356 -6672 0
1920 4821 2935 0
2323 426 -1358 0
8292 -7085 -9417 0
9265 5025 -749 0
-2711 2070 5257 0
-3147 -724 757 0
709 -5714 9043 0
-3701 8969 -9513 0
-2540 7225 9730 0
-7731 5354 -9357 0
-6640 -2223 -281 0
-2339 -2917 -6875 0
-3668 1182 6123 0
-9729 2122 4522 0
9656 5514 -7685 0
-2747 -131 7479 0
-5172 8621 3279 0
-6096 4653 -9033 0
-4786 -2664 1029 0
3257 1326 -2344 0
-8917 -6613 -2465 0
3052 -671 1737 0
6363 3290 9742 0
-6206 7050 1001 0
617 -5979 -3648 0
3329 -8095 4916 0
-939 5836 -1406 0
6870 -6820 2726 0
9709 -649 473 0
-1842 -4276 -3265 0
4291 -9809 -1784 0
1693 -4809 -6472 0
5326 9251 -2019 0
-8272 -3141 1596 0
9935 -3080 -3794 0
6688 -1239 5616 0
3443 4225 3097 0
5567 -6582 1050 0
2075 -1900 -4514 0
-432 -2767 5069 0
1234 2972 -4151 0
8132 -6249 -2706 0
6451 1334 -2366 0
-1047 -6237 -7563 0
7495 8163 -3518 0
56 -1311 -3222 0
-4615 509 -8644 0
-874 -570 4322 0
8060 -681 5708 0
-3969 9777 9155 0
1784 1113 9549 0
7283 732 -4988 0
6471 -4784 9889 0
5572 9089 6058 0
595 -890 600 0
443 6212 -220 0
-5634 -7297 1271 0
-6451 -3872 -7664 0
-2331 -9618 1472 0
4384 4249 -6014 0
8706 2960 8658 0
-8906 2985 -415 0
9498 3943 6150 0
7890 7466 -2681 0
8170 6333 -3435 0
5313 -7723 -8764 0
5592 3090 853 0
-5415 -2134 1846 0
-7925 -7920 -6273 0
-1954 1339 -3171 0
-5994 -124 -2977 0
-1585 2644 -1721 0
-9726 -2395 9310 0
7877 722 7534 0
9768 5633 -1820 0
5415 -5129 -1558 0
-2785 -9157 -7383 0
-7743 7330 7914 0
-2951 3301 -3118 0
3964 -6505 -9583 0
452 -6660 1805 0
-8945 8947 2148 0
-2867 7351 7426 0
3662 -6572 -5607 0
-7527 -5685 -4188 0
7202 7769 -4896 0
9186 -698 9290 0
1911 9567 3030 0
3202 -6269 3210 0
369 7703 6272 0
3074 2383 -1925 0
5944 8706 551 0
-386 -746 -3900 0
3361 -3601 -1672 0
6667 2653 -5451 0
-5841 -4345 6150 0
4346 -3466 9325 0
2452 -7084 -5755 0
3742 -2876 4114 0
2854 -3868 -7 0
-754 -201 -3499 0
-253 -5395 6435 0
188 4197 5318 0
3180 -7759 -9588 0
-9267 7222 -2031 0
9182 -9730 7793 0
-3318 4333 9911 0
5702 4873 9083 0
6456 87 1442 0
2701 -9636 7715 0
8656 -2073 4407 0
-6840 -7203 8542 0
-7777 6345 -5377 0
-1834 -1744 1458 0
1709 -5946 -627 0
2932 -3094 9838 0
-2777 -8231 3177 0
-5521 7037 3305 0
4005 -2331 -4560 0
4527 7442 -2965 0
7703 2587 3382 0
3239 -9582 -1416 0
9392 -3012 3632 0
6926 -7174 -3178 0
1251 -9506 -6095 0
-33 8333 1070 0
-3710 5445 1950 0
-3219 -785 462 0
-1263 -3020 -1667 0
3815 -8374 -9280 0
3900 8861 9159 0
-8230 6646 9899 0
8966 -3482 -7110 0
-6804 -7563 4573 0
1992 6681 7200 0
-539 -5122 2869 0
2118 8967 9739 0
6696 6893 1856 0
907 5258 -5647 0
-1913 3033 -2537 0
-7780 -1390 -6795 0
4108 2218 4675 0
-7966 -9197 -7400 0
-5523 267 8457 0
-9158 -745 -6480 0
-7049 4047 -8928 0
-9958 -2236 -5745 0
2809 -9454 7049 0
-5438 2169 3442 0
3471 -5128 -197 0
-6171 -6382 -6335 0
4691 7757 -8553 0
4686 850 187 0
1158 -8674 -6716 0
1602 -8102 -8555 0
7182 -2165 -1188 0
-9593 7028 -5780 0
4763 6858 2343 0
-7713 3129 7544 0
-690 8056 -1007 0
6531 4918 -4215 0
-1542 -4584 305 0
1098 7890 -4169 0
701 5484 9942 0
8212 -6462 -9695 0
-8756 9341 6339 0
-177 -6048 -4478 0
-6274 -2672 -6698 0
-41 2823 6285 0
7900 2049 9038 0
-208 2443 6027 0
769 1863 4986 0
7640 9040 -755 0
6166 9441 -8147 0
3800 7961 -8916 0
-9285 9895 9136 0
-517 4369 6047 0
-1228 -5159 -6297 0
2039 -5 -4679 0
2413 4051 -5675 0
3350 7358 -2998 0
4227 4009 -7452 0
-3235 7000 4524 0
3339 6546 -4104 0
5043 5365 -8631 0
6281 1974 388 0
-7981 -2499 -4823 0
4302 -2488 7092 0
1178 -4806 7942 0
5506 4293 -3214 0
-6784 5139 -582 0
9432 -5395 7157 0
-3307 290 -7687 0
-4731 -5040 757 0
-6704 297 -179 0
8490 -4292 5276 0
-9472 -2072 -9081 0
97 3246 -79 0
-843 7497 7096 0
3846 -3823 -4598 0
-6791 1953 -4617 0
436 -3190 -2750 0
-4823 -1502 478 0
-3888 -1588 2517 0
-4974 1058 2863 0
-5423 8903 -2822 0
2700 7014 9169 0
5868 -4749 89 0
9690 -5517 1929 0
-5535 4098 6431 0
8939 -6888 -7761 0
-3065 3714 -5356 0
-9411 6713 6712 0
396 3260 -6227 0
8180 -5721 -1517 0
557 -9122 -365 0
3669 -9747 -9531 0
2373 9489 -5663 0
1381 -3904 9860 0
9447 4223 7675 0
-7951 2679 -9362 0
6467 -2150 7681 0
4082 7021 2499 0
9399 -4828 7911 0
1397 -1997 -1350 0
6551 -3049 492 0
-1848 -6269 -845 0
8910 1157 -2949 0
-3857 3538 2499 0
-3697 672 -1961 0
-895 -9356 5318 0
4212 -6974 -6293 0
4816 2495 4251 0
6938 4031 -8685 0
1334 3133 1105 0
6498 1367 4116 0
-4895 -2589 7219 0
9090 -4022 -8761 0
-2459 -2245 -8416 0
5790 -4351 6912 0
1557 -8884 -2635 0
1646 -2208 -6285 0
3183 -8723 4635 0
-8346 7518 -776 0
5538 3261 -6058 0
3453 2160 -9449 0
6725 -3037 -2885 0
-5542 -8408 4437 0
-9847 -1272 3609 0
8977 6227 -9057 0
6467 -6175 -8149 0
7658 -753 1682 0
3254 -457 -2325 0
-7287 3802 1047 0
8330 -2905 -6108 0
-4183 4879 4267 0
-6660 3589 -5384 0
9303 5529 9998 0
1915 9945 -5765 0
-7235 8952 928 0
2998 -9456 4735 0
-7796 2876 9754 0
7533 7008 5739 0
9309 -9983 8512 0
6593 -8057 7416 0
-8083 3657 -3995 0
-7358 -1304 -2897 0
-9349 -2428 -3574 0
-2166 -2175 706 0
9868 7154 3824 0
6455 -9556 -4937 0
-4459 -4455 -59 0
-9646 -2269 -7284 0
-1247 -5626 -3731 0
6779 3220 -7905 0
-5554 4542 7609 0
9266 -6033 4657 0
-8840 2572 -133 0
-8542 7821 1547 0
-7114 -9533 3714 0
-6132 -9527 3722 0
7924 2504 985 0
-4790 -757 1071 0
7142 -2213 -4939 0
-8143 5266 225 0
-6725 5684 9205 0
-9318 8269 4754 0
253 -2656 5811 0
3119 -6458 -671 0
7545 8328 3104 0
-7985 -4040 8163 0
6595 -8813 -4169 0
-8438 6706 -5225 0
-8117 6325 4009 0
-3080 -6893 2978 0
1379 6658 4626 0
5560 8239 -8029 0
9978 -5135 -4276 0
-8953 9661 -5762 0
-6731 7149 -9225 0
4251 -1308 -8033 0
-392 7193 -8471 0
-7467 -7988 -1755 0
3432 -4142 867 0
3852 7248 -4615 0
2845 521 -1704 0
-3449 7732 6482 0
4800 -6357 -5152 0
-1282 6449 -4479 0
7421 3501 -8646 0
-1338 3981 -9954 0
7944 -4668 6238 0
2753 -8795 -5702 0
9818 4411 4448 0
-9119 3754 -4224 0
1979 1620 8708 0
2992 -1872 -4126 0
6278 -6767 7877 0
-64 -1932 -6335 0
7845 -9528 5115 0
-9677 4226 -3461 0
-9435 1501 2514 0
4385 -7886 5561 0
-9533 -6332 -9914 0
9612 -6943 246 0
-9915 2050 2554 0
-8435 -8511 -959 0
4698 -4876 2717 0
-7853 -4468 2770 0
-1811 9538 -2925 0
3495 -3293 7037 0
6353 9407 7605 0
-3568 -1381 8026 0
-4573 -4251 3603 0
2930 4240 5816 0
9117 -5690 3292 0
-4031 -2542 -8327 0
766 -7969 -3349 0
-1908 -8152 -8537 0
-1087 -7425 -9891 0
3561 -7337 -7140 0
399 -8165 -976 0
-3461 7955 6809 0
3975 9681 7076 0
-7437 7272 -8652 0
9239 -1351 -9146 0
9249 -1960 9501 0
-3887 -7607 6644 0
1198 -8637 4147 0
-9221 6365 3399 0
9425 -6908 7156 0
-6190 9087 -4907 0
-5433 -6076 4415 0
5357 -7561 8910 0
-311 6849 -8288 0
-2702 -4301 -4134 0
-8091 -439 798 0
-7839 -4991 -203 0
5880 -1405 -8696 0
-4138 -1374 -2146 0
-9765 -753 1026 0
-6206 3254 -3743 0
-1376 7734 -1562 0
-4247 4119 -5764 0
3137 -3848 -7191 0
9599 -7554 -8365 0
4924 4384 9593 0
8605 5351 8227 0
5915 -4290 -7832 0
-6723 9811 -4522 0
-7570 8931 -7678 0
5427 2756 -763 0
1779 -4792 -1280 0
1224 -1441 3462 0
-2365 -5616 954 0
4195 6489 9493 0
7637 -4300 4563 0
-2384 -9752 5928 0
-9231 -8910 -9596 0
-3420 2347 -3543 0
9056 3553 -7177 0
9983 7061 -2294 0
3060 -7818 -8003 0
-2604 -3256 4476 0
-6309 -2904 -1211 0
-7621 -3184 5878 0
6591 -7928 -7481 0
-8345 -5609 9553 0
5303 5786 9534 0
-1747 1092 -5724 0
-7200 5421 1639 0
-5809 7836 4774 0
-2529 4567 -7386 0
-1495 6157 4629 0
3150 7477 -2100 0
-5057 3422 -7863 0
-237 -3159 8108 0
6705 -416 7336 0
188 -9973 6773 0
-6049 -3614 -3687 0
4612 4801 -306 0
4681 -4960 1081 0
-2899 -7331 -2051 0
7346 4307 3454 0
-8535 5406 4042 0
-2895 1498 1308 0
7118 6833 4485 0
9136 -8515 -4947 0
-9098 6927 -1964 0
-6368 -9759 -9881 0
7567 -6680 -9118 0
8707 8155 -344 0
2303 -7394 8144 0
-3507 1562 -4806 0
-289 3084 -5940 0
6420 -4396 4312 0
1295 5358 -8535 0
-6549 -3580 8941 0
-8445 8219 2631 0
-7806 4103 8789 0
8810 -5930 -3051 0
5635 9084 7230 0
4470 7168 9219 0
-2372 3542 4185 0
-8008 -5653 3254 0
-8745 -859 -4382 0
-8632 -6390 -9566 0
-9016 -6364 -9658 0
-3520 66 2523 0
-7682 -3666 3583 0
-9781 6335 6171 0
-2683 4165 3164 0
-3608 5712 -5551 0
9543 1520 -4188 0
2187 -7945 9886 0
-4797 -1254 4444 0
4684 7842 -2864 0
5116 3347 8584 0
7301 2436 1325 0
-7765 299 2241 0
8261 -5298 -8584 0
5667 746 1591 0
2919 -2111 6428 0
3008 -259 -4741 0
-5576 -7290 -4366 0
-2074 -529 8667 0
-2759 2716 -6804 0
-741 -8328 4361 0
-5209 8090 8723 0
-6141 -8433 -6045 0
-5740 4139 6340 0
-6784 -9222 2255 0
-5791 -7247 -6549 0
2733 -3593 4540 0
203 8166 -6527 0
5305 -9491 519 0
-4940 -1517 -3785 0
-1890 -1150 6796 0
-8459 -4957 9160 0
-1792 -6307 -6472 0
-2651 3940 2940 0
414 1215 -4517 0
9509 -8380 -8951 0
5285 -4157 9217 0
-1252 6509 -6199 0
-889 3608 7451 0
-7518 6584 -6435 0
-7236 -9515 8707 0
1295 8917 -253 0
-8212 2115 8763 0
284 -352 -814 0
4553 -1398 -8413 0
-4126 6055 4929 0
5726 -5287 -2151 0
-8317 4747 7873 0
-8758 8554 -909 0
-5496 3477 -3552 0
-4946 1006 -3262 0
5301 6476 -416 0
-8440 249 -9220 0
-3489 -4489 -9223 0
-5745 651 -5860 0
-1181 -3998 5086 0
1797 2457 1013 0
-9053 -8263 -4723 0
5991 9688 9355 0
-8806 7591 -7756 0
-669 8586 -2241 0
-136 6708 7929 0
7538 -9736 8823 0
2848 3875 3202 0
-2600 3245 -3532 0
-3648 909 2677 0
328 -5042 -401 0
8657 -7308 -4672 0
-362 -3126 -4078 0
7690 1790 -4024 0
-4556 -1469 -7208 0
-4133 -7268 -8634 0
4568 -2466 2601 0
-2519 8616 -6880 0
4295 9342 1871 0
-34 6210 -3359 0
-9485 3015 9307 0
-4066 -8624 -6681 0
-1014 539 7177 0
-5656 -6230 -8144 0
3570 -5719 -9247 0
6147 -9417 -269 0
5351 -1886 8039 0
40 9181 -3867 0
996 6506 4066 0
-252 6698 -1547 0
-6572 -7803 5690 0
-109 -6205 -7274 0
6339 7657 3398 0
-7624 -6824 1352 0
-350 1202 1120 0
5333 2835 -7474 0
-4568 -5194 -7594 0
3814 -7848 8202 0
-6591 1324 -4618 0
1330 -8149 3831 0
3393 9946 -4835 0
3340 9622 6573 0
8320 6834 -7929 0
6682 7219 -1790 0
8691 2600 -4522 0
8003 -4171 -7027 0
-5148 6940 8733 0
-9556 -22 256 0
-4710 5503 -5710 0
944 9895 1848 0
9937 8425 5750 0
-6294 -7686 -8529 0
-5637 -9081 -9982 0
5956 3840 7562 0
-6841 -3070 -5733 0
-2587 -4039 -7295 0
-8800 -9950 3486 0
6977 6476 -5268 0
-3990 -1636 4154 0
-1742 4681 -2329 0
-1504 -9824 -7640 0
5226 -2383 7022 0
8106 -5724 3292 0
1849 -8753 7817 0
5568 -1833 -3462 0
8840 -1236 548 0
6923 -8148 -5721 0
-5337 8207 2143 0
633 -1448 379 0
-6656 -4925 9291 0
1894 7065 -9919 0
-1877 -3069 -9939 0
-9792 4524 -5754 0
-6469 144 4263 0
-1229 3967 -5058 0
9424 5657 -9109 0
2477 -8307 -6279 0
1862 -5381 -7507 0
-1883 -6635 7602 0
-765 6256 -5868 0
486 3970 -7763 0
4141 -4621 -1778 0
-5717 -1048 -3708 0
5415 3603 -1856 0
4137 3890 -4102 0
2823 4152 -2339 0
-8120 -8355 4394 0
-7979 -5077 -2512 0
667 6463 -4358 0
6353 -9105 7074 0
8695 -4855 859 0
-3774 -3588 9622 0
-7218 -8008 2685 0
-6888 -9674 1704 0
-1016 3349 -8378 0
-1079 5288 3463 0
-7511 1752 -8137 0
277 -8823 -2488 0
-6612 6246 -4860 0
-5430 -3881 -9262 0
-4141 -130 931 0
-498 -5121 7528 0
-4946 9127 -5254 0
-4808 -4766 3769 0
-2353 -2664 8527 0
1412 9301 -1438 0
-2748 9494 8998 0
8853 -2010 7688 0
-5390 -2108 1672 0
9455 -102 -1796 0
683 -8524 6675 0
-8905 4359 9719 0
-6294 -3012 8224 0
4220 8013 -4395 0
-6370 5740 -8683 0
-3600 3139 2378 0
5123 5478 9436 0
-8522 2318 5681 0
-4342 -2537 -9271 0
-4585 1859 -9348 0
-5621 -1555 7699 0
-9300 -7836 -4720 0
1689 -3780 2959 0
4493 -8101 5298 0
-5225 -179 923 0
-7893 -5392 2922 0
7005 5892 4884 0
-4592 -2783 2805 0
-2880 4383 2322 0
-3404 -5868 -1812 0
2405 3536 1839 0
-1746 1077 -7712 0
-4061 -3262 -1558 0
7206 -2198 2349 0
-5829 4959 8506 0
6769 2255 -1440 0
2009 1930 -2203 0
2773 9891 8722 0
-4650 8618 -5540 0
-5273 -9756 -1626 0
-4497 7924 5 0
-708 8296 8944 0
-2822 -6163 2662 0
1200 -2694 8514 0
9545 -5729 -2901 0
-5419 1829 -9848 0
-6148 1121 -4626 0
-2263 2791 7959 0
4204 -6931 1331 0
-8426 -1651 -5348 0
3144 -1546 2055 0
-2336 5145 -9266 0
-4384 7253 4751 0
1958 6885 -9320 0
-8225 2764 -5753 0
7852 8176 -3934 0
-5307 4514 -8655 0
6172 9718 -9623 0
3393 4355 3856 0
5089 -6273 4503 0
-9646 -6161 2101 0
7727 -8705 -5178 0
-7443 3466 -9640 0
-2976 3974 265 0
-4533 4024 -4268 0
-8892 9141 -3880 0
5652 -9582 -1916 0
-4705 -8878 9041 0
-598 6927 3094 0
-6821 -2121 -1140 0
2097 -7719 6207 0
-7478 -5235 3671 0
9781 2456 -9525 0
6432 -1297 -9594 0
-7320 3061 7163 0
2948 9137 4916 0
7904 -1802 -6734 0
-9348 772 6784 0
-848 8559 9394 0
5197 7290 -7434 0
-4144 -9176 -5717 0
-5235 -8636 -3094 0
6517 -6733 9877 0
-4740 -2599 -8912 0
3515 4577 -7449 0
5840 -3429 744 0
9428 -5348 4081 0
5304 8821 106 0
-8524 6423 -3604 0
8478 -6567 -1120 0
-6869 6540 -3180 0
-2845 2236 2108 0
-6696 -3650 6101 0
3532 3517 -3666 0
3690 -4023 1424 0
8879 2717 -9029 0
3054 -3764 -166 0
7802 -8256 -810 0
322 -9896 -9990 0
-5769 2378 4426 0
-4582 -612 5293 0
8951 7924 3972 0
6771 6117 790 0
6937 9553 422 0
-9750 -3017 1383 0
-6940 -8884 9384 0
-9631 -2 7176 0
-7785 4095 5702 0
1539 -8470 7532 0
-4512 1780 -1383 0
-8356 -738 -8337 0
7020 9434 7855 0
-9514 2850 -2529 0
-8231 -978 -530 0
-4271 -2020 2301 0
9871 9636 3404 0
6536 -5556 -6414 0
3444 6986 2374 0
1005 -9484 324 0
3095 -3237 5716 0
5324 4968 -9916 0
-9273 -5650 9102 0
9955 6402 7571 0
-4577 -5057 5228 0
4445 9509 -3678 0
-1181 -1536 -6534 0
-6439 -8652 -1319 0
-1867 8331 -5038 0
1203 -4849 1366 0
3702 -7196 -2971 0
1826 -2490 -8074 0
-9853 5358 652 0
-3508 9229 -8814 0
5603 -3039 -2328 0
6451 5861 -6104 0
-5703 3276 -8479 0
3286 -6209 3373 0
-4696 -2136 4909 0
-3152 -5551 -3194 0
-2431 6474 8095 0
-2638 -1579 -1780 0
3428 6713 3279 0
-4504 6681 -7233 0
-5879 -8934 -7952 0
-4681 -6922 -3575 0
3340 -5638 8141 0
-7528 -2147 -9144 0
1162 4514 5213 0
8773 -7261 -6635 0
-7173 -8642 2938 0
5944 3986 6062 0
-2706 -956 4067 0
-8982 9288 -1250 0
6807 2274 -8751 0
6502 -6244 -232 0
5246 9834 -8491 0
-2032 5475 -7820 0
-2977 6642 -1332 0
-6654 -282 2930 0
6785 -2467 8033 0
-7276 -6773 -5511 0
6694 2103 -4013 0
-3325 -2199 7688 0
6976 5414 7362 0
2479 -8794 -7753 0
897 6142 -2929 0
-4722 5064 -5875 0
-5720 -6906 -9667 0
-5904 -8848 6746 0
-2895 -5484 2504 0
8360 -8690 5623 0
9296 -3772 -7657 0
1594 -633 8854 0
-8519 5219 -666 0
-1496 -9250 7904 0
-4213 2673 1165 0
5007 736 2690 0
-7126 -10 -8147 0
-1679 7738 -4198 0
-5426 -2397 -8799 0
-726 3513 9514 0
7959 -9460 4699 0
1747 -353 8724 0
-1551 2939 -1651 0
-5087 7311 -1560 0
-4347 9521 -4153 0
7739 -4042 -7028 0
-6113 -8682 5194 0
-1239 7407 2939 0
986 -387 8099 0
2367 621 -6164 0
-1946 5394 2313 0
5552 -3062 541 0
-668 -6549 9881 0
3951 584 -7140 0
8142 -3203 -2165 0
-4931 3593 1808 0
7011 7396 6007 0
-9423 -8291 2996 0
3747 -1569 6156 0
-2634 -9881 -1722 0
9767 -6513 -9813 0
-2982 -1361 -5816 0
-2845 6815 -6388 0
-7944 -766 2687 0
7083 -3369 5978 0
-8288 -7875 170 0
748 2150 -1758 0
-4950 2453 -7835 0
1345 9433 -6278 0
-4156 -818 -5947 0
4497 -2137 6910 0
-5053 106 -888 0
310 7802 -5159 0
-4429 3246 -6516 0
-8864 9070 -614 0
-5473 2496 -5397 0
-2833 6184 107 0
-6218 -527 -559 0
-2265 6480 -6988 0
-9900 -2110 7867 0
-9575 -9808 -152 0
4671 -2353 9326 0
1829 2665 -2267 0
9665 -1999 9322 0
-5783 -2843 -8968 0
-284 -9097 -9454 0
-5558 -4910 5137 0
-6601 -8636 -3456 0
1972 6313 -6784 0
-5442 -35 -1690 0
-4358 -8673 -7046 0
4673 -6649 4242 0
6804 -5613 -222 0
-5813 8272 872 0
6146 -6429 2982 0
-225 6920 -9226 0
-5036 6270 -6565 0
9209 3026 -757 0
4919 -3156 -9931 0
-9042 -3828 -8313 0
7357 4976 5250 0
1847 -2930 3106 0
-7417 771 9953 0
7743 2803 1806 0
3410 -3245 2609 0
8783 2041 -4877 0
-5333 -1567 -2044 0
-7497 4504 -8639 0
7657 5931 -7830 0
-1027 417 -6838 0
-1624 -4486 3735 0
-6159 -8656 -6842 0
337 -8720 -2011 0
8607 -7132 5493 0
8648 -8732 -4453 0
6771 1611 3441 0
8349 4056 8459 0
9798 8539 2113 0
7702 7130 4903 0
4656 -6319 -5097 0
390 -8165 4568 0
9757 -169 9773 0
7458 556 -5538 0
-8525 -6492 4693 0
9686 9226 -349 0
1271 3712 -5238 0
-5219 -1032 9088 0
-8093 -2760 -9525 0
8955 -3865 -9644 0
-7021 7537 -5963 0
43 -7336 -7644 0
-8744 8816 1227 0
-2395 -3416 6073 0
-6967 1031 7971 0
-7004 7389 2696 0
9983 -1109 -7048 0
6895 7947 -9660 0
-7406 6960 141 0
5541 -8249 3641 0
-9224 -7714 -4946 0
7282 -201 -1705 0
-6838 -5246 -2907 0
4950 -6848 3788 0
-618 3701 1192 0
1883 4480 8566 0
-5605 -3406 -5544 0
8017 -2309 -9727 0
519 -9674 8189 0
734 1457 5796 0
6439 9714 -4530 0
-1072 -1435 -3100 0
-5076 7015 79 0
7564 -1844 -1367 0
8747 6651 821 0
2657 -3986 5134 0
-4488 1955 5006 0
8810 -8147 9485 0
5509 -2378 -4651 0
-7336 4386 -9625 0
-3153 672 8149 0
-5007 -6912 177 0
-8753 8985 5204 0
4021 -4115 -3901 0
-1019 -7423 3496 0
838 -5567 -9276 0
9041 3381 -6780 0
6086 5161 7252 0
2633 -8967 -2196 0
7724 -3289 9642 0
-8983 1369 4248 0
1402 -2998 1842 0
-9788 -2697 -3685 0
3934 7656 8515 0
6773 2568 -3216 0
2875 -6305 1131 0
2240 8933 5962 0
-6344 -831 -4484 0
-2122 6386 9025 0
6590 9958 -8626 0
-1579 8083 -387 0
2610 -7921 5618 0
8847 -4312 -7933 0
4970 -5703 -3972 0
-4746 925 -1547 0
428 4039 2601 0
-1854 8149 -6726 0
-8521 -9239 1678 0
6598 -1008 1055 0
-3264 1123 -5771 0
1273 -3641 -4321 0
-6333 6688 3849 0
4515 4019 2110 0
-5632 -7681 -6392 0
-5735 -8280 8266 0
-9355 2487 2442 0
-3360 6201 1770 0
-2221 5716 -5861 0
-3400 -6167 -1637 0
3807 -2962 9206 0
-5694 8051 7190 0
2368 -9804 -2225 0
4951 -4136 9886 0
5389 1354 -5996 0
4294 -267 7796 0
-2778 969 -9952 0
1056 9054 7187 0
-3563 -6022 6645 0
-6428 -6387 813 0
5423 -432 2045 0
1796 3559 -9694 0
-8123 -2713 6029 0
-1825 -3882 -8049 0
-7496 -3335 -7408 0
9806 -2300 6775 0
5934 -8985 4558 0
809 9832 -2702 0
-1182 -684 -964 0
7715 -7554 430 0
-7005 3505 7247 0
-3973 5613 -1373 0
-6499 -9690 -1668 0
-870 -9526 -6138 0
6271 7323 -5082 0
-2451 -8020 3426 0
9991 -4995 5904 0
6148 6287 -6094 0
4397 1751 878 0
1939 1680 -1991 0
9817 -2203 -4233 0
9503 -3630 9259 0
-4727 -8081 -8038 0
4907 374 -2773 0
9065 2557 -574 0
201 -9079 -952 0
-9817 -2828 -2807 0
9482 -755 -7252 0
-9897 -8289 9180 0
-9862 -556 -5122 0
-1898 -1770 -6079 0
924 -9242 1095 0
8853 -9989 -1521 0
-4026 -4337 -866 0
649 1450 9618 0
-9740 -6336 196 0
-3713 -4452 -5619 0
-5841 -533 4922 0
6175 2616 -4231 0
2123 -7030 -7063 0
1036 -6470 -6657 0
4982 -8360 342 0
-4200 3740 -3677 0
-2450 -3823 -6213 0
-1664 -1092 8764 0
2046 9462 8508 0
4887 -567 225 0
-5596 -5038 410 0
-6656 -7868 1796 0
9168 -9553 4901 0
-2812 2805 -8987 0
4057 1350 -2933 0
-9379 464 5799 0
-4165 208 4585 0
2890 4606 1582 0
-5952 332 3194 0
-8916 7666 -4336 0
1879 3308 -4706 0
-3611 -3574 6472 0
7996 -2575 -2588 0
-2893 -5597 5464 0
-1638 1574 -2358 0
24 -5760 -1065 0
1865 -2225 -7384 0
-7402 5710 -8085 0
-9722 -8511 -1386 0
7641 8194 4172 0
-1999 5650 -1086 0
7336 1796 6219 0
1687 6444 -8867 0
-7569 -5759 5741 0
-3207 -653 3733 0
7048 3191 2820 0
-832 535 -2383 0
-2236 2820 4211 0
-8322 -2037 -2166 0
-5488 -5141 -3081 0
1474 9882 -8550 0
-9471 3623 -4878 0
4149 9126 2576 0
7609 7024 -617 0
-3453 -1369 -2044 0
3078 -662 -1805 0
3795 2631 1295 0
73 498 1767 0
-3652 3448 -1411 0
-4729 -5795 -9422 0
-4475 -7945 8545 0
-3690 4772 -2492 0
-5426 -5439 3851 0
-4789 8421 -7282 0
5973 9629 -8209 0
-6500 -6310 8900 0
3412 -5529 -2440 0
7455 -9203 1284 0
-6444 -669 -9076 0
-6458 -5320 -3181 0
1929 -4326 9989 0
4779 -6100 4029 0
3373 3723 -1427 0
716 1803 -6575 0
9750 -8746 1018 0
-1121 -4581 2864 0
5207 -6652 1685 0
-9153 -1207 -6759 0
-7399 -6908 -3030 0
-2226 1678 9497 0
9037 4232 -7886 0
4991 -7477 -2536 0
-6683 -1947 5345 0
9966 -6475 -3594 0
-3589 -2860 -1585 0
-827 4156 -8949 0
-6733 3302 -6321 0
-4411 4716 -1133 0
-9727 -1351 -7848 0
-2479 5106 -7295 0
5759 7779 -2816 0
4777 -4048 -4123 0
-2549 7066 5488 0
-2539 -5455 -3301 0
1759 -5605 7578 0
139 627 -7013 0
-7989 -3096 4572 0
-5083 -4002 -765 0
5201 -7916 -9609 0
6161 -6337 -9052 0
5008 1202 2159 0
6935 -1633 3729 0
3961 -9854 1419 0
-7841 -3680 2503 0
1773 -3290 3307 0
5143 163 -6401 0
-7625 -6279 1945 0
-4297 -2445 4032 0
6066 -4726 -2667 0
-7859 1534 -8028 0
-9125 2210 9468 0
3042 -4435 -8399 0
5956 -5498 5577 0
-1100 4834 -3541 0
-5258 1713 8999 0
3560 6647 9397 0
8104 54 8065 0
-7061 1370 4988 0
3800 -4383 8955 0
3806 8451 -5875 0
-3827 -5221 4671 0
-374 9875 2133 0
2548 5851 2504 0
2317 7329 -3485 0
-9628 -6556 -1938 0
-1735 1945 -2598 0
4862 -7474 -978 0
-5584 1563 -9063 0
1410 9207 2703 0
3933 4171 9708 0
-8697 -1107 6430 0
-774 -3260 6567 0
-1551 3924 -5672 0
54 -2313 1717 0
5618 3839 -497 0
4814 7898 1544 0
-9434 7043 -5837 0
6519 9509 -1103 0
-9231 -3569 -3540 0
3795 5663 1912 0
194 6628 960 0
3507 -7450 -4020 0
634 -9962 2700 0
-7120 2103 6942 0
-8599 -3002 6567 0
8142 643 7154 0
-2829 -7891 -9178 0
3417 3992 755 0
-9127 4108 6654 0
6035 -5632 -4875 0
6028 8085 9479 0
-8445 4551 -5849 0
3567 -2970 -1369 0
3140 2667 -6266 0
-1898 -6290 -4976 0
-712 -7923 -9433 0
-5004 -5527 -88 0
2660 -3992 -246 0
-1786 5612 -8903 0
1824 9810 -9437 0
4031 5676 -8465 0
-4259 3946 -631 0
137 -1208 5046 0
-2632 -3785 -2336 0
-5958 7994 -6470 0
-8584 -5705 3868 0
2731 4618 6496 0
-828 2907 -6050 0
-1221 -433 -8758 0
217 -5463 381 0
2106 -7435 -1840 0
6767 2267 -2678 0
-1959 -1392 -357 0
8544 -6277 -2304 0
-8452 -4200 6224 0
2602 -9099 1296 0
-643 -9067 3735 0
-691 7136 -9276 0
2160 -5645 7113 0
9121 3556 5520 0
-1758 -4993 -1233 0
2047 1298 2588 0
8364 2138 6583 0
2566 3752 -7954 0
-2590 -3105 -7329 0
451 1397 3408 0
3418 -4047 -32 0
4003 -5794 1405 0
449 -1813 -5071 0
6268 -6288 5323 0
-127 -7471 9593 0
2650 -6331 7698 0
-5246 -9913 -470 0
6279 -2531 8407 0
8950 -5616 -7426 0
-1188 9634 7637 0
805 -8512 -5008 0
1927 7469 -2610 0
2337 -1471 6818 0
4738 2301 1223 0
9468 -6827 8634 0
8379 -9366 -1826 0
-5385 594 -7220 0
-4579 -6376 9645 0
-585 4211 2316 0
6824 -6439 -743 0
2044 -4944 -1586 0
-9361 8303 9533 0
-2454 8664 5812 0
-1070 -1760 -1709 0
3893 4353 -2495 0
-1772 -1585 -2891 0
9387 7141 -6407 0
-4941 -2109 -4680 0
-3175 5909 -7433 0
3546 1150 -4606 0
-8067 8925 5096 0
2671 1388 -8845 0
-1955 1258 1279 0
3363 665 6671 0
-3487 -8894 -3997 0
-2602 -904 -2607 0
-5711 -2995 -7485 0
6910 3384 8385 0
-5428 -8591 4991 0
-9930 -1456 -9626 0
-7671 6282 1986 0
-909 -3920 -324 0
9465 7677 -1158 0
-6280 -3308 5702 0
5017 667 -7710 0
4803 636 8258 0
3629 -1799 69 0
-3090 -5950 6919 0
-6418 6604 7348 0
2792 -4495 -4313 0
3799 -100 7057 0
-5177 849 3366 0
-9134 -3700 -9818 0
-6606 -1865 6711 0
6256 4514 -3040 0
-9356 7740 -5757 0
1352 3817 -4951 0
-2852 9369 4097 0
-66 -8846 -3110 0
-4765 7543 4180 0
709 -1290 2524 0
5573 -3545 -3482 0
-4552 9612 1833 0
-5104 -3516 -9125 0
-9301 -4453 4234 0
-891 -2959 -9364 0
8327 -3663 9648 0
-3295 -2355 5763 0
519 -7482 8063 0
346 -951 -2406 0
400 2408 9456 0
-884 4427 5927 0
4181 1403 5242 0
-4198 2028 7857 0
-3753 3205 6669 0
-8562 2823 -8023 0
-2379 -6853 6901 0
1471 -4683 4227 0
6261 1475 3178 0
-3938 -3726 278 0
-7756 -5755 9637 0
-8988 -1355 -1279 0
-9339 4798 -8648 0
6892 8803 8322 0
-7051 3268 -7951 0
8389 6231 -2126 0
-9493 -674 2630 0
-4937 -6059 5477 0
3314 5759 8156 0
-53 3797 4359 0
-6240 8443 -1780 0
-4857 5319 -6828 0
-9324 3460 -5059 0
-260 8209 -9775 0
8316 8307 2398 0
9122 -2541 -7821 0
-2182 1442 8760 0
5036 9304 -7555 0
-6749 6577 -1151 0
-8299 481 -5120 0
7115 -3681 -9567 0
7175 -1980 3494 0
-653 -330 -2686 0
-4485 -4165 8632 0
-8513 -1959 4984 0
-6415 1950 8247 0
-3147 9029 -249 0
-1611 1124 5770 0
-2176 8893 3920 0
-9775 6724 -1888 0
8495 7255 7646 0
-840 1786 -5998 0
6666 8278 -4391 0
-6719 7072 9527 0
8344 6183 1325 0
-4052 8711 9392 0
6409 -5486 6937 0
-4057 -1126 -7381 0
-9690 6178 -2087 0
7783 6467 -345 0
2847 -1708 613 0
-4811 -8487 -8372 0
-7349 3754 6225 0
-5286 -4535 -6734 0
9013 -6338 -2327 0
8402 -8742 2568 0
-2081 895 4239 0
-9162 -1332 3122 0
5638 -5026 -3195 0
6916 8999 -5809 0
4194 1247 5173 0
-9947 118 6840 0
8216 5621 -9518 0
-224 8946 6009 0
-927 -4491 7729 0
-9353 9271 -3755 0
2148 -6119 5456 0
5351 -6966 2622 0
9114 3497 -3766 0
-5443 -9077 -8690 0
6973 -6927 -2893 0
6251 7792 990 0
-3412 -1631 3430 0
-1974 9511 -9594 0
1289 -9801 382 0
3299 -4522 119 0
-2079 -47 8570 0
507 -5591 -7229 0
-2667 4756 -9132 0
-9153 -307 1980 0
1210 4111 -7899 0
-3276 7787 -9305 0
1725 -9512 -3140 0
-6308 -9733 4147 0
7076 -8656 8017 0
-2475 -9638 9330 0
9529 -7051 -5241 0
7777 6254 -7824 0
7669 6734 -884 0
4924 -4298 1901 0
746 1643 8698 0
-1108 6115 -2109 0
-6578 -1182 -9669 0
-477 4303 5898 0
9774 3181 2291 0
4713 5596 -89 0
-7132 -4575 -4196 0
-1180 -8333 7043 0
-8003 9653 -9683 0
-9673 -6147 6209 0
7938 -6286 6442 0
-5893 -9585 9537 0
-6168 -2933 3791 0
65 2899 8209 0
4464 917 -7875 0
-5284 -2473 -10000 0
9530 9021 3287 0
-7106 4227 -5708 0
-81 -888 -9795 0
3328 -6730 -7874 0
-990 7428 -1179 0
2747 7649 -8925 0
7098 8813 -6264 0
-5844 -2214 -8806 0
-6476 -5756 8690 0
3307 5149 -2789 0
-3331 3014 -8312 0
-8567 -2781 -4117 0
-5519 1763 8447 0
3253 8319 -1675 0
3913 2966 9250 0
-8107 -9 -8349 0
626 -4919 -9064 0
5788 1547 824 0
-6353 -145 -9990 0
-1194 5969 -8050 0
-3373 -3547 -9394 0
8143 4679 951 0
7513 -8963 -1823 0
-4276 -3027 -8120 0
7824 6440 1282 0
-2610 1934 -5443 0
-4769 -1704 9466 0
-625 4650 6780 0
8724 2359 -4575 0
-7465 7831 -1165 0
9129 -758 6504 0
6046 9966 -7713 0
411 -4269 -9377 0
-6631 -7048 7233 0
575 9195 -321 0
-5541 5039 -8320 0
3334 -3317 -9024 0
-3864 4858 4929 0
9482 -945 -3309 0
-4159 -6691 2215 0
6495 8159 2683 0
-9450 8247 9708 0
-6111 4125 4106 0
-893 -6866 6779 0
7488 6655 3247 0
-4902 -9208 -3723 0
8335 -1450 2614 0
-132 5082 -5588 0
8007 9427 6586 0
7684 2411 5652 0
-8518 -7287 9676 0
804 9979 5767 0
-7583 -7730 6571 0
-7479 4101 3320 0
8373 -8991 8784 0
6925 -5594 4954 0
1783 7228 5510 0
-3556 4588 -6568 0
3214 -1638 -6670 0
8863 6327 7992 0
-6157 -8932 152 0
-2868 4928 -51 0
3742 -5661 7330 0
2813 -4884 -6994 0
6777 7063 6467 0
-7757 -1786 4503 0
-197 -1740 -9464 0
-5377 -356 9656 0
1298 -2162 4034 0
6964 -1628 6959 0
-3871 -1674 -3417 0
3954 -8638 3518 0
9627 -6682 -6714 0
-6118 -5345 -3970 0
-8385 -7386 -2384 0
915 -394 7899 0
1125 -362 888 0
-6880 2840 7323 0
-5668 9316 2112 0
4290 -6583 852 0
-7151 8690 4964 0
978 4542 7435 0
3677 -3216 -5944 0
1884 2961 -7752 0
1374 7169 -1898 0
7634 -1057 -6504 0
-2087 3692 -7092 0
-4554 -9538 -9605 0
-3708 -9993 4401 0
3771 7303 9608 0
3987 -2044 4536 0
-9353 7538 -3122 0
5565 5688 -7227 0
-6302 -309 -4228 0
5885 9881 -1027 0
8499 3484 412 0
2142 -6806 -6954 0
-7854 -3099 5175 0
5482 8460 -3886 0
-2580 9641 -9262 0
-9320 7269 -2909 0
-381 -5333 7376 0
2122 -1335 4571 0
2850 734 1592 0
2248 -3832 1387 0
-2941 -1896 -8929 0
5446 2240 -1955 0
1496 -3163 -7058 0
2460 513 -9757 0
-9755 -5772 -3344 0
-545 2133 -2288 0
6069 7290 6972 0
-6131 4705 -138 0
5898 8579 4839 0
8061 9077 1198 0
1734 -6686 -5754 0
-3029 1167 5236 0
-6648 7998 -5454 0
-6776 -1387 -1020 0
6553 1951 -8511 0
6860 -8588 -2417 0
8216 6650 1142 0
-5740 -845 -8934 0
-9327 3184 -4377 0
-3006 -3073 827 0
-6682 4984 4347 0
-2053 -1977 323 0
-2943 -7132 -4820 0
-6718 461 -38 0
666 4356 -7228 0
9118 -9777 843 0
-5095 8846 -796 0
-2069 5989 9427 0
9375 -2281 3426 0
121 7137 1723 0
-1966 172 -6549 0
-4066 -2343 4826 0
-3881 -5536 -5191 0
-4523 6514 2249 0
714 -6751 445 0
-167 -5647 1701 0
-8355 9508 2649 0
-8972 -5039 2692 0
-4251 -3207 -4738 0
-1204 2804 -5249 0
-5941 -7962 6270 0
4569 -2222 9381 0
-1997 9655 -7152 0
-7830 -6030 6751 0
-5645 9155 9079 0
-9411 -7503 -1338 0
-3275 5852 -8243 0
-7257 -3410 -3164 0
6945 -1297 -593 0
-7558 5396 548 0
9535 -9950 -7759 0
-3956 -7199 -1275 0
8940 6097 6024 0
2482 6386 -5577 0
3927 -4580 9834 0
2853 -1876 -3225 0
-10000 -9638 2383 0
1931 1523 3070 0
-9241 6843 -8559 0
9895 -7476 -3059 0
9436 -3079 8375 0
3181 6787 2397 0
5331 6505 6059 0
-9024 8240 -8544 0
6 9794 840 0
-321 9567 8246 0
2951 3923 5110 0
-5803 9165 -2518 0
8193 -8389 -8424 0
-9275 -2485 3347 0
4321 -699 7026 0
-3617 -1283 9636 0
3792 8224 -6071 0
4248 9851 2900 0
4972 -9727 4152 0
9138 7009 -3242 0
7189 751 9452 0
-6516 5376 9579 0
2854 7808 4201 0
-5609 -2629 2076 0
-3924 3743 -4821 0
-7007 6930 5512 0
2912 2186 -1989 0
6981 -4511 -5397 0
-1975 8894 -7894 0
-2151 7054 -5624 0
5833 9614 -3870 0
1719 -15 4729 0
4313 -6695 -1884 0
-8495 -6069 -6791 0
-2558 9732 3209 0
6841 9519 5773 0
-4192 9516 2736 0
6365 -2005 3454 0
1019 1428 -6761 0
9288 -7319 -4374 0
3369 -1579 -3476 0
-9207 3417 2834 0
9243 4129 4373 0
-8564 4673 -8568 0
-5840 4571 -8139 0
9755 -1296 7195 0
-9155 6454 -9335 0
1843 -9187 5508 0
8424 -2020 -394 0
-4661 -8101 -657 0
97 -4521 9469 0
-8282 2427 1839 0
-9057 2008 -2269 0
-5512 3102 5767 0
7790 2907 -4194 0
3428 4636 864 0
5561 -1981 -8048 0
-3500 7735 -3290 0
1148 -3799 -1286 0
8894 2203 2664 0
-4619 -2787 -2037 0
-8893 1535 7434 0
6865 7403 -614 0
-5451 -5370 -1756 0
3131 587 436 0
-8346 4077 1163 0
9823 -348 -5340 0
-3781 2598 -2779 0
-9457 1689 4615 0
-9881 3323 -8424 0
7961 5363 4915 0
-9976 -709 -3147 0
2058 -3713 5228 0
-5599 -4987 1423 0
-2031 3585 7002 0
6343 -1985 5362 0
5222 -9850 -8021 0
2002 -2095 1384 0
-5239 -737 -2885 0
-6758 3525 -2014 0
830 -8184 9194 0
2367 8673 -8451 0
6012 -9399 6899 0
3275 -8193 9059 0
-1029 4014 5788 0
9519 -9191 6011 0
-263 4451 7987 0
8635 -4027 -8273 0
6883 8642 8568 0
-9512 -3701 -1816 0
-8267 2436 -7571 0
-4940 2093 6840 0
9725 5283 -3155 0
-1497 -6091 3837 0
3182 7259 -447 0
9106 -1140 8791 0
2381 -7406 -7320 0
-4945 -1558 -4030 0
1187 7893 7270 0
7594 8311 -3 0
-2030 -4717 -174 0
-7735 -58 -6636 0
6989 -5674 -3470 0
3590 68 7045 0
2052 -2915 3730 0
-6279 -1115 -2252 0
-4083 -7266 4146 0
-7555 1072 1956 0
-8802 -9368 -972 0
-4107 -138 7536 0
-9301 -7514 -4940 0
-2032 -9827 -1829 0
2478 2470 9290 0
-7845 -1190 1632 0
-2278 -502 58 0
-555 8211 -8779 0
9074 2606 6744 0
-771 5907 -8157 0
-5070 -8360 6594 0
-1719 -6847 1900 0
-8864 751 9545 0
9864 9580 -2952 0
2341 -7156 -7173 0
-4536 -1364 5574 0
-5786 -7066 4488 0
8075 -4791 -940 0
-1729 141 -1975 0
-2079 795 -9501 0
-8061 8497 9126 0
7741 -8883 -8429 0
3776 -9525 -1089 0
-4843 -5899 4233 0
6606 -603 -2400 0
6789 -1034 -1325 0
6279 -8356 -4136 0
1600 3002 -6509 0
-9028 9349 238 0
1784 2690 -4977 0
4463 372 2816 0
-5092 -8551 -6339 0
1926 -1832 -2985 0
-2454 -7505 -1780 0
7570 -5823 -8373 0
2373 -987 68 0
9702 -9229 4291 0
-4242 -6498 9038 0
-6402 1872 1650 0
-1542 -6482 -3802 0
2040 853 -5786 0
1797 9769 1999 0
4751 735 835 0
8946 858 2831 0
-6793 -7173 -9339 0
1223 6651 2667 0
5281 6843 -2763 0
-712 9768 -7006 0
1338 -4076 8646 0
-9492 -293 10 0
-2558 7858 -1399 0
1810 3927 3619 0
8917 -1164 4816 0
425 7261 -3376 0
-450 9018 -5481 0
-2480 -9698 9764 0
5967 541 -1254 0
2840 3267 -9868 0
-4206 3116 1023 0
-6790 1336 8454 0
-2601 -1807 -6755 0
4955 -436 -3251 0
-6426 4120 -2546 0
-6926 -4990 -5307 0
-194 -2789 6989 0
-6747 3910 -1464 0
7546 3621 9764 0
7182 1474 6428 0
5816 -5382 -8550 0
-2713 -3800 7677 0
-4628 5770 1435 0
-6876 -9286 -9525 0
-5118 4856 -7210 0
7626 -9609 -488 0
3643 -8772 2926 0
-844 -8779 -8987 0
-7208 6540 -8321 0
8520 3152 684 0
-7191 6445 -9268 0
1379 -726 -8956 0
-1628 2998 8813 0
-9062 -2080 3625 0
-6977 -8146 -2656 0
-9767 -9927 -3755 0
3274 7866 8749 0
7472 6541 -9835 0
8749 8681 5117 0
5543 -6934 -4363 0
290 8418 -9444 0
5889 -4975 -4476 0
399 5422 37 0
287 8147 -5488 0
-1186 9915 6027 0
-7033 -694 2173 0
-5787 8210 -5127 0
-1452 -9378 -156 0
4697 -8225 9019 0
5213 -4969 2685 0
-5564 5715 -6492 0
9902 -8548 -5239 0
3603 3171 -9912 0
-9170 -3991 5386 0
988 -149 7916 0
804 -3572 2139 0
3686 -9364 -7667 0
-6685 -3921 2889 0
-5221 -7647 741 0
-3558 2509 6220 0
5295 -1040 -62 0
9549 5025 2299 0
-9246 -3713 6958 0
-3344 2344 3372 0
4483 5348 9919 0
-9594 9963 -489 0
-2337 -4131 1992 0
-4703 -5663 -416 0
-3614 5745 3048 0
4034 -1987 -4138 0
5977 485 -7846 0
4157 984 -1401 0
4698 -4269 -4022 0
-5173 1952 1228 0
-5502 -2397 5881 0
730 -7297 9063 0
-4865 -8855 -7317 0
2936 -3016 -2013 0
-9428 -7178 8517 0
-4927 5425 1130 0
9872 -9948 -9714 0
-9738 1865 -3170 0
-4500 -7992 9470 0
1489 7063 5722 0
-9565 6425 1856 0
7868 8418 7899 0
6554 8877 102 0
-897 -6426 -6120 0
-5539 -9250 4516 0
-2555 -7513 8120 0
869 8507 5548 0
5526 5604 4054 0
5148 -1413 -4944 0
-8526 2218 -1020 0
6194 -7980 374 0
9569 792 9965 0
5336 803 -1641 0
5045 39 -4641 0
-6402 -7387 6166 0
9417 -1518 -3112 0
364 -6124 483 0
-4132 -8358 -5994 0
-2229 -6622 9608 0
1127 -5643 -8252 0
2907 751 1188 0
7368 6175 6352 0
2486 7967 -4894 0
402 -2390 4136 0
-8851 -3988 57 0
-9965 3417 7372 0
-9363 3877 -8700 0
8523 -3192 -2289 0
7135 -6173 -7165 0
9412 -3676 9697 0
7531 -1960 -22 0
3738 -8476 -8363 0
8898 2345 5817 0
-4604 -7811 -4437 0
-647 4895 8127 0
-948 238 2383 0
5352 -5674 -2697 0
-9273 -7068 5139 0
7405 9947 7153 0
-2132 -1379 2527 0
-3253 1713 -8333 0
2897 9653 3182 0
3855 9095 2873 0
4565 9903 5004 0
1454 2060 -8234 0
-4209 -5114 -6314 0
2282 -6537 667 0
-1454 5643 -5277 0
-8753 -9320 5358 0
-4527 -7487 -4970 0
7822 2121 -3495 0
7571 3299 -703 0
1508 -4782 4956 0
-7062 9817 -8500 0
4656 -1429 -9644 0
9062 -4041 7946 0
-7077 5495 2577 0
4164 5851 -5916 0
1061 9765 7113 0
7321 7047 3331 0
8497 9098 3300 0
-9354 -3941 -6789 0
7001 6652 7461 0
6167 -3009 -6798 0
3710 -8049 -9598 0
5630 1079 -4182 0
-4457 -5459 9990 0
-9367 3004 -1232 0
-6417 -896 9912 0
9509 2393 -3978 0
-7689 1352 -6105 0
3987 7934 -2389 0
492 -132 2756 0
-7344 -5169 -6234 0
-9129 -7697 -930 0
-7444 9768 3774 0
-4849 2912 -5388 0
-7223 -5624 -8293 0
9295 1435 2565 0
211 -6606 -6593 0
4356 -4655 7730 0
-1187 9586 -5634 0
6578 -5605 1880 0
4504 -5648 5973 0
-445 -4800 3488 0
5090 -547 4195 0
-5249 -357 3384 0
3230 -2320 9773 0
-7161 1487 6120 0
2021 8507 9712 0
-1790 -7228 -8225 0
4018 8379 -5563 0
4909 -1273 -7346 0
-3557 7913 -9866 0
6000 -5994 9618 0
346 -2106 -8454 0
-3697 -2122 -8539 0
8182 4721 -3790 0
1460 -6771 6663 0
-2254 -75 -1578 0
9321 -2631 3149 0
4417 -302 -9319 0
9328 1762 -4150 0
-876 -8549 -6286 0
-1960 7243 8410 0
5831 4658 2984 0
-7392 214 4794 0
9656 4254 -7921 0
5669 8328 -1469 0
8997 7885 7976 0
9695 9916 7358 0
-7265 8668 -4294 0
-6300 1678 5707 0
-5802 7429 6085 0
7638 -2026 -8621 0
7374 -7185 -6397 0
8148 -564 1453 0
5178 -8766 8292 0
-4041 -4552 4663 0
-8471 5416 3620 0
4701 -9230 -6675 0
-2966 -7638 -1262 0
-4147 6436 -7973 0
5663 3345 8232 0
-4976 -3502 -7988 0
-1102 -7151 -7722 0
-5159 252 9467 0
-1046 294 4957 0
6448 4248 -6435 0
9641 -2603 2508 0
-7608 3907 7138 0
5510 -4274 -5065 0
-4532 6643 -1017 0
4270 -8710 1303 0
-3765 8845 7221 0
-4538 6359 -9652 0
-4050 1198 -1626 0
-7771 2505 -7975 0
9529 -3359 7728 0
-838 9507 -6402 0
3473 -4235 -47 0
4792 2768 -705 0
-7703 -1947 4918 0
9389 9682 -1407 0
4028 -1985 4828 0
-3679 6806 6841 0
-7349 -2912 -5209 0
4412 9456 -8174 0
6784 556 -3606 0
-6649 8376 1917 0
9271 -3672 -1412 0
3217 8613 5064 0
-7887 5747 3525 0
-3945 8795 6181 0
-9363 591 4241 0
-4379 5903 -4025 0
-1989 8649 5085 0
-1843 8127 -9387 0
7777 8810 76 0
1665 -7618 -4472 0
5648 2839 -5390 0
-5756 9813 -784 0
6589 -4120 -4024 0
-6359 -5427 2245 0
-9778 7249 -4992 0
-5413 -7709 7548 0
3270 -7086 1820 0
-2667 8550 3428 0
-9114 9551 8820 0
-2134 -3269 -3760 0
8550 -4290 1463 0
2555 1802 3896 0
-3260 3328 3238 0
-793 7930 -4966 0
6608 -8038 -2154 0
3090 9962 -8880 0
4105 9422 7067 0
-6413 -655 -6289 0
-5626 -9577 346 0
-482 8413 -9256 0
-3978 2532 1299 0
9378 -4856 -3410 0
-4892 4523 9715 0
-7258 -8855 -1290 0
3954 2976 9695 0
-5938 -6461 5462 0
-8835 8695 8812 0
-9051 8116 8681 0
-8189 7898 -6253 0
5899 -4521 1425 0
-2908 -6918 -3715 0
-9206 -7875 -9043 0
-2548 3745 1688 0
9769 3784 -9250 0
-1110 -1672 -6356 0
-6360 -1889 2953 0
-9971 -6685 -8764 0
-4403 6535 -4801 0
-6701 8607 10000 0
-9972 -3084 6476 0
-4999 -2025 -4403 0
-4982 1153 -4540 0
4327 8177 7907 0
-27 -1545 -2181 0
-7150 -6526 6079 0
59 6931 8457 0
5607 -7300 8325 0
-9301 -3919 7547 0
5228 -6813 -1395 0
3376 1234 5800 0
-1111 -3617 -5109 0
-2146 8548 -5885 0
2941 4854 -9162 0
79 -4812 -2122 0
-4095 -6077 4168 0
-2637 7082 -4732 0
2595 -5794 -5777 0
8841 3924 -9094 0
-3613 -2616 8868 0
8746 -7231 -693 0
2650 1081 692 0
-1699 -8683 -8985 0
2200 -5731 1855 0
-1629 4628 -1435 0
-7257 9456 607 0
-4182 8912 -1538 0
-8575 -1030 771 0
-5270 3606 -7897 0
-3947 920 4937 0
-5971 868 1152 0
-6679 820 4878 0
-3540 3113 3631 0
9676 3193 2114 0
7605 4102 -8906 0
-4065 -4993 3406 0
-1718 5425 -1266 0
4109 6860 -8811 0
-5399 -2742 -1296 0
1704 -7318 -7737 0
-3119 9738 859 0
-2895 -1783 -6009 0
7025 9577 -3949 0
6854 -7732 2717 0
1783 -4759 -2671 0
1201 1793 -7486 0
-2139 -4166 3933 0
-1460 5106 8275 0
-8197 7642 -7139 0
-4956 9863 202 0
-1257 9050 9127 0
-5499 7592 -2698 0
-5832 3797 -2348 0
-6945 -9017 -9964 0
-4227 1129 2051 0
-8379 -6693 -8194 0
-4634 5754 -3700 0
-728 -1417 -5015 0
5607 -9397 -6283 0
3589 2366 -7361 0
9170 8998 -3464 0
2915 8412 -8400 0
-3914 3329 965 0
3840 3178 4172 0
550 -5623 -9328 0
-4669 919 -7670 0
-9687 -4135 -1944 0
-5159 3891 -4216 0
-4071 3264 3815 0
-1216 -7143 9683 0
199 2434 -7276 0
-305 -1449 -558 0
4944 5217 1548 0
2865 7328 -1689 0
9762 -3372 3609 0
-379 5521 2247 0
7884 -9700 3139 0
-434 -7460 4496 0
4852 8048 1502 0
1970 -3946 -1914 0
3182 5103 -9955 0
-2759 4081 1461 0
-157 1166 -1645 0
-7173 -6250 543 0
-5459 2855 7064 0
-8183 -7199 4561 0
5617 -162 -2966 0
4261 -2609 479 0
-4787 -8330 7840 0
2473 2323 -3883 0
747 6316 2382 0
1394 8459 -7313 0
-8231 -1330 9566 0
8075 1523 -2422 0
-2060 -8640 -5706 0
8870 7681 -5983 0
5921 -3142 -7199 0
-8205 -8662 -9997 0
-5780 -7514 191 0
-9717 9535 1193 0
-9221 1518 -195 0
7095 8522 -9789 0
-9526 -6318 1260 0
-7417 -6549 -2868 0
-5795 -2891 -9833 0
134 4878 8714 0
6385 4873 7720 0
-2145 7888 8412 0
4358 -7958 9160 0
5992 3848 -9458 0
1383 3794 -6473 0
7765 8253 -1809 0
8342 546 -5958 0
-4800 3056 -6408 0
7528 -3721 -4051 0
3217 -6954 4110 0
-818 -9571 -6718 0
-8257 -9978 4958 0
-9497 -8598 -6949 0
6145 -449 7261 0
-2288 -2105 -6624 0
-4420 -2029 4410 0
7816 -3653 729 0
8212 6513 -8719 0
-333 -6505 -6447 0
-7991 -8759 -833 0
9123 3884 -7099 0
-3199 -4255 -4188 0
-2354 -4098 4401 0
815 -8333 2239 0
-8280 -693 4490 0
-4979 1064 -8710 0
8668 9340 -992 0
-601 -4260 -1297 0
6731 4233 1561 0
-230 -2016 3294 0
5974 6736 9173 0
3002 -7978 -5003 0
7209 3610 -2272 0
6201 4762 -5662 0
3572 -7407 687 0
1619 5474 1436 0
-1210 3518 -1428 0
-9932 -4205 -3903 0
-1158 -7898 -5069 0
9250 -3092 -1909 0
-5400 2379 -8773 0
6743 2774 -1265 0
-9400 1605 -251 0
357 -2219 -3260 0
-4588 -6426 -8438 0
1876 -3009 -5351 0
3333 6709 3012 0
-6785 1287 1782 0
9069 4060 2598 0
-3704 4008 -274 0
-7960 9690 -2237 0
-5830 -2153 8882 0
-2818 468 -8642 0
3668 -2584 -7433 0
-6534 2327 -1347 0
-708 1259 7360 0
-6857 -5350 4735 0
-5335 -7439 16 0
-3707 -2825 7548 0
-6789 1894 -5905 0
-7288 5561 6687 0
9028 9890 5276 0
2269 -9484 -4428 0
9014 -6959 8053 0
-7845 -951 -6325 0
2863 5942 -3136 0
-7691 -4834 -1193 0
2158 3313 6642 0
9731 -144 1839 0
-772 6300 1149 0
9690 7669 7580 0
-9438 4411 4530 0
5018 -7557 -4921 0
2085 -6414 -6674 0
4251 6340 -2132 0
5550 -784 -128 0
9662 8901 4583 0
-8051 -1707 -6321 0
-1076 -7062 4929 0
-1870 7626 1055 0
5229 -5003 -5083 0
-9865 -5833 -6747 0
-1787 7868 -6434 0
-3478 1066 6892 0
-2404 -4595 8790 0
4921 5161 8828 0
-1395 4829 -2679 0
-5665 -8906 -5075 0
-9322 2474 -1876 0
8986 -6242 -8845 0
-1350 -9397 6276 0
1889 -4866 781 0
6682 -9545 6557 0
1988 -7213 8440 0
1086 -9157 -1512 0
4557 -1152 -2670 0
-7389 8784 2249 0
6086 6533 -5863 0
-1335 4212 3185 0
-1117 -5973 -2660 0
2102 -7279 -7167 0
6399 -7596 6845 0
-4611 8433 5837 0
-6316 -5694 7208 0
-6811 7461 -9740 0
-6417 -5720 -7520 0
-6282 4815 2057 0
7832 -4229 5103 0
-7599 3373 2034 0
1514 -4640 3370 0
-1248 -7676 -1707 0
-8727 -3811 -6901 0
7180 4976 8611 0
2836 5353 5 0
-7494 -1220 7154 0
814 951 7725 0
2668 4940 -2812 0
-2309 6554 8619 0
-3619 -775 5727 0
5088 2952 -9799 0
8194 9351 9853 0
-4058 8183 -7374 0
5367 8654 -8668 0
3226 2489 6444 0
1919 218 9597 0
-189 -3333 8304 0
-1967 -3164 -3783 0
381 -2752 3336 0
9674 2187 5349 0
9936 3866 -2472 0
81 -1307 -4450 0
2289 -5387 -1980 0
-3979 -5645 -2336 0
5552 6753 -379 0
4452 -7952 -1400 0
-5534 9333 -1287 0
-9178 7772 6758 0
2840 318 -5419 0
5251 4211 -1160 0
-5665 -1902 -5429 0
2259 7910 5511 0
213 319 -8864 0
-876 -336 -204 0
-2982 1372 641 0
922 63 -1904 0
-2973 -7907 -4890 0
4267 -8782 -1362 0
5459 -9293 -8048 0
-4260 7768 -3751 0
-4104 5792 4654 0
-2506 -6771 -4149 0
2894 3357 -3164 0
4031 -6340 -6899 0
7226 3671 -2335 0
3726 -3359 6518 0
9051 -1439 2895 0
4342 7237 7280 0
-7858 490 -7559 0
-6132 -7517 410 0
879 -6471 -4016 0
-2140 8726 -8042 0
-6802 -6236 -8024 0
-9374 8359 2949 0
-5289 6707 7303 0
2810 -9942 6647 0
2837 -2620 -1534 0
1439 -3619 7253 0
6611 -5209 -2311 0
7939 -6356 -8318 0
721 -669 -7572 0
1783 3745 -352 0
-4575 5871 5779 0
6089 -4544 -9137 0
1692 9477 7216 0
5269 2386 9369 0
7094 2640 -407 0
-2522 -1805 -3741 0
432 -738 -2663 0
-6275 5733 3192 0
3387 9518 -2535 0
-9467 -2617 6384 0
8130 -9158 -3139 0
-8587 -5410 -8911 0
-8639 -3721 3160 0
3931 -8557 8216 0
6527 5095 9853 0
3109 9125 -8308 0
6441 421 -2781 0
6159 1105 8644 0
365 3804 6222 0
4700 -4057 8996 0
6513 -1260 -8348 0
-9701 -9052 -4763 0
-5503 -8190 4313 0
-3533 -7089 2866 0
-6648 -4716 162 0
9522 -6603 3904 0
9418 -965 -2646 0
-5585 7238 -8227 0
4335 -8011 -9213 0
-1574 -484 -8358 0
295 -6195 8865 0
1233 5975 -2228 0
-9610 4480 -8862 0
6466 522 -9357 0
-1969 6756 -5735 0
-2034 -1144 -7605 0
6581 3274 4312 0
8809 8162 499 0
-6979 -5968 5369 0
-244 9235 8230 0
-5077 2663 8378 0
-5517 -1693 5113 0
-1427 -9640 6316 0
5913 -9666 4235 0
-7004 9269 -6986 0
-4858 3988 -3513 0
-7441 447 7780 0
44 -4446 9067 0
-1829 9373 5895 0
3237 3367 -9116 0
488 6130 -5377 0
-7263 6136 1445 0
2617 -5217 -7348 0
5031 5791 -9401 0
-4369 -6037 3709 0
-6413 2615 5518 0
6277 1530 -4383 0
-9106 8759 -7834 0
-339 6092 1917 0
-1752 -7778 9567 0
-2923 9170 4563 0
-7408 5783 -4088 0
7346 6659 -4536 0
-2566 -9088 8578 0
-6886 2342 -4744 0
-4869 -4469 6988 0
1417 3839 -16 0
4093 5904 6478 0
-7556 4290 6193 0
-6985 6885 -4526 0
-1389 -8034 7064 0
5486 -6320 8666 0
4677 -3491 -3218 0
-152 3372 -5575 0
5109 6391 -7986 0
-6113 -4139 -6395 0
-8777 -8657 -4621 0
7640 -6486 -2817 0
7289 -1372 -1749 0
-2966 7458 9952 0
-8817 2099 4867 0
-9382 9545 3785 0
-8175 7839 3165 0
7510 -7056 -7774 0
-9707 211 -8136 0
4152 -3800 -1847 0
9387 -9821 6669 0
-7681 9968 -5396 0
-881 4940 -7571 0
-5715 -6312 3827 0
5986 8953 -9128 0
-9368 -9464 6492 0
-7546 5474 6591 0
3154 -2145 -5270 0
7002 -1382 -7601 0
-1237 -5089 7109 0
8818 9994 1843 0
-8878 -9905 5141 0
287 -9019 7980 0
-6944 -863 2347 0
-5836 3291 -8308 0
-2196 7739 4916 0
-5439 6911 2096 0
-5680 4434 1763 0
-5214 2842 -7353 0
-4091 6475 -9831 0
350 1197 -9970 0
9480 -3743 5456 0
-3819 1832 6507 0
9176 -4608 82 0
-4707 -4697 3562 0
8905 7984 4186 0
-7508 -7935 -869 0
-9178 966 1503 0
4972 669 1079 0
3240 -316 2387 0
-185 3338 -5546 0
-6237 4694 5289 0
-2587 -6393 -7468 0
-9360 2957 -3878 0
-2548 1055 -5967 0
4363 2987 9746 0
8688 -5395 7499 0
-100 -7333 9222 0
5044 -3954 -4761 0
-4266 -8600 226 0
-4570 -2110 3701 0
-1084 -8226 -4663 0
-2465 -1085 8625 0
383 6436 5370 0
-2340 -1902 6740 0
7077 5763 -4801 0
-2754 4677 2498 0
8312 1790 1194 0
-9798 7701 -9060 0
-7083 9577 9716 0
5672 -736 -9354 0
-584 -31 -1966 0
-2716 5581 4822 0
-4683 2624 -487 0
2382 9539 5225 0
711 -526 6204 0
-7932 -465 4133 0
6505 -1814 -7070 0
-4797 -9942 -1160 0
-5076 7531 3737 0
2145 -1108 -2066 0
-3653 -8281 -8753 0
6241 1369 9262 0
7431 -4173 333 0
-3816 -8833 -8857 0
-424 -1557 7332 0
643 3187 -3970 0
6371 3655 9560 0
-8456 -2417 6823 0
-5360 5561 8305 0
-1161 -7398 210 0
1468 1448 9452 0
2338 -464 -9068 0
-1109 -7698 -8274 0
-9172 -4129 -5232 0
-7461 -9035 -625 0
4219 -9499 7403 0
-3538 -9836 8741 0
-8573 5031 4636 0
-4774 8908 9436 0
3786 -9348 9957 0
-1724 2526 -7004 0
-6183 686 -6609 0
5573 -4825 -3832 0
-4602 -8901 -8758 0
-6653 -1449 7262 0
4763 -3621 -5770 0
1598 -9777 9817 0
7078 1036 -9049 0
3022 6853 -1926 0
-8116 -759 -4653 0
7623 -5600 -3402 0
4099 4812 1808 0
-8072 154 -7363 0
7034 -9649 8606 0
-5677 4990 1741 0
8851 9995 9496 0
-8487 -7885 -4046 0
-4810 -5321 -796 0
2859 -2799 6509 0
133 6760 -7020 0
5489 6461 7355 0
7411 -9793 -9872 0
2898 2995 -9539 0
-9393 6723 9162 0
-16 -9865 -824 0
30 -7445 -8399 0
2594 -8881 2675 0
832 -5408 761 0
540 -5105 541 0
-560 -3323 -6242 0
56 6011 -704 0
722 8348 -6247 0
-5411 -5592 -6597 0
9021 6502 9970 0
-3874 9459 -2387 0
-5732 1227 -5727 0
-4190 -9234 776 0
5487 8252 7150 0
-4519 920 9400 0
7601 -982 1256 0
-1871 -2514 -5484 0
-5559 -2154 3382 0
3257 1188 8932 0
-7902 -1697 -6823 0
-8686 -4769 4371 0
6682 -5879 4446 0
-4247 5563 -3681 0
-8183 5645 3456 0
-3100 3114 7846 0
3053 9394 6436 0
-5496 3611 -9330 0
7093 -6365 -9817 0
-339 -196 8378 0
4058 -9491 3438 0
4237 -7291 1556 0
-5234 6766 802 0
7226 -7487 4226 0
9993 1637 9866 0
-9660 8583 6005 0
8096 6160 5946 0
2212 -2811 -9908 0
-4910 -4460 -5010 0
-3212 -27 9097 0
-9753 1773 -6797 0
1762 3912 7986 0
-8369 -7601 -4377 0
5666 7778 3238 0
5869 6373 -8854 0
-7954 4389 4596 0
1135 6490 7461 0
-8234 4247 -6510 0
-7237 -4346 -8800 0
-5529 1007 -29 0
-768 -5565 5151 0
-8067 4123 8481 0
-490 -620 5850 0
-2436 432 7430 0
1584 -3018 -6004 0
6068 3569 -7572 0
5152 6664 -6602 0
-651 -9821 2737 0
-3296 -2754 -5167 0
4855 -6199 -7277 0
8905 -2275 -7269 0
3568 9580 -7839 0
395 4957 -9760 0
2534 1494 -3916 0
4226 -4182 415 0
-3325 4348 -6083 0
2418 -2816 7315 0
8136 -5840 -5035 0
3289 -8637 7771 0
-1002 -4613 1382 0
-7729 -638 2387 0
9159 -5591 6458 0
9704 7511 8334 0
-6257 6723 7568 0
6439 -7368 5770 0
-6888 9182 140 0
7935 4194 239 0
630 1772 5824 0
-3971 -6585 -750 0
7922 -7810 58 0
3085 -4499 -7634 0
5634 -8631 1421 0
2064 5522 -9656 0
2110 2554 -8078 0
-6393 7891 3034 0
-2073 -2379 -9785 0
9477 -1530 -349 0
-6016 3555 1736 0
-8467 8852 3626 0
-3808 -7288 -6556 0
-5024 -8120 6582 0
-7496 -8399 -2699 0
-4730 4798 6144 0
7709 -8653 -8100 0
8715 -852 -4851 0
-6769 1804 6643 0
3765 8598 -7084 0
-5510 5021 -5069 0
2213 2107 -9521 0
45 -837 -7346 0
525 9268 8221 0
-1496 -6983 2976 0
-7310 -4674 3331 0
-3485 255 597 0
2961 -5482 5224 0
-6373 1951 -9365 0
-6317 7670 -1520 0
2738 2234 -6480 0
8071 -4629 6634 0
-7196 -6862 -4313 0
9185 -9949 -6077 0
-4467 -3952 -5474 0
-918 -1503 7461 0
8159 5068 5166 0
7539 -8661 -9304 0
5337 -4860 -3762 0
-3653 -8276 5096 0
6557 3539 -7031 0
-4511 9619 8558 0
2530 5009 3021 0
7170 9858 297 0
-1118 -9168 -409 0
4165 -4745 2864 0
-7592 -4529 3204 0
-6051 8366 -6571 0
500 2887 83 0
-2379 -4459 -8310 0
5359 -4730 -8746 0
292 -9290 812 0
6218 1624 -1902 0
-3661 5103 -8175 0
1410 6623 7243 0
-1227 -3736 -5502 0
-4092 -5675 -9261 0
1939 -3618 4576 0
-4132 -2689 -2445 0
-3049 -8101 7874 0
7641 -9963 2666 0
-7644 -608 -6352 0
-9459 9964 8041 0
2265 -8050 -4884 0
-1230 -314 7850 0
-7070 7081 2818 0
738 -7724 3329 0
4164 -8478 -1881 0
2795 -9855 -6206 0
5966 2577 6910 0
-7212 -2882 -7906 0
1753 3599 -7641 0
-9847 3420 3223 0
-6513 -9956 -3752 0
6976 -641 -4545 0
-5490 -709 -2959 0
-758 6552 -2287 0
-4954 6567 -5353 0
-1123 -7927 -656 0
-1200 7770 6826 0
-2832 2439 539 0
-4358 -9396 3134 0
-8853 1879 4133 0
8263 6501 4800 0
155 -8573 -957 0
1392 -6731 3320 0
4403 -3955 800 0
-6969 5832 4776 0
-5626 -61 -3654 0
9717 -3551 6898 0
-8416 -9623 -7121 0
6555 7230 -5206 0
-6810 -8035 -5821 0
8168 5615 -1617 0
-5534 8705 -1850 0
3942 4658 -9227 0
-437 9402 -2861 0
-4455 -8375 6968 0
890 -1107 -2626 0
-3448 5584 -6450 0
6552 -168 6091 0
2045 -5830 2935 0
-6868 -7985 -6708 0
-903 -6089 -3590 0
7676 -5571 6757 0
1895 335 4341 0
-2629 417 9617 0
6341 -516 -5903 0
716 -2390 266 0
-1141 -7462 684 0
-6643 -4979 1465 0
7374 -5749 -5959 0
-1918 9854 -6062 0
3832 5317 6924 0
-6211 -5536 -8322 0
7261 409 1987 0
-7273 -3914 -2133 0
5189 3090 -8189 0
2649 -5465 -9138 0
-531 -1118 9297 0
-1090 613 2457 0
9851 5672 3793 0
-726 5406 1384 0
268 -6574 -9213 0
5102 -6704 2824 0
-3115 9872 -5617 0
8923 -5007 -8925 0
-3850 6753 6627 0
-3051 7036 864 0
-6912 4944 9667 0
2982 -8574 2737 0
-9943 7138 -9777 0
-8262 -5538 8047 0
-6933 -5824 -1448 0
9115 -5794 8579 0
-1920 6363 -748 0
-2606 4356 9929 0
6872 -192 8416 0
2368 -3874 -9878 0
3839 -2608 8268 0
-3446 -7708 -5231 0
-8938 -4347 -4443 0
5306 7603 -3768 0
-7145 -4136 9908 0
4828 1682 8626 0
-2450 5010 4449 0
-6248 -4268 -8568 0
-4459 -5992 2683 0
-5977 -7939 7721 0
-6542 -9 -7348 0
8416 5997 -4171 0
-3533 -8977 6363 0
-1972 -3993 -7107 0
-7942 6410 -4669 0
-7979 5856 -7588 0
-2028 2480 8085 0
-7414 3241 -5637 0
-3783 5279 5823 0
-7882 -5136 4972 0
6708 4904 2238 0
-2567 3346 -1238 0
5107 -57 3498 0
-9890 8282 6851 0
-8 6414 -8267 0
-5567 -1008 -3937 0
4599 7983 4982 0
6590 -3118 732 0
-5337 -737 -4062 0
6307 3581 671 0
9756 1623 -2264 0
-2001 -9868 4883 0
7768 -7579 -8564 0
6792 -6929 -4853 0
-5661 6880 6142 0
6790 7682 5021 0
-8948 -6171 -7955 0
-7188 -4291 4455 0
2182 -4281 -5082 0
970 961 7247 0
7796 -4515 6969 0
-9367 3947 8118 0
-5217 1598 -8024 0
4828 2431 7582 0
3295 4673 -5805 0
5235 -4887 3944 0
-8452 5694 5767 0
1735 -3187 -2715 0
-4487 -2174 -4791 0
7388 117 -3964 0
-6016 -1206 1993 0
-3380 5756 -276 0
-4231 8919 374 0
-3602 728 1245 0
4655 481 6756 0
7808 4148 6430 0
517 3411 7036 0
-634 -1950 5415 0
7427 -4235 -7058 0
6833 -1726 -1551 0
9329 -8561 4597 0
1156 -4666 3605 0
-9160 1632 6473 0
3107 -2475 8984 0
5843 -934 902 0
2172 -6269 7802 0
-9200 -4587 -5473 0
4782 -9376 3752 0
-7567 4653 1205 0
-5398 -2072 -1517 0
-7386 1494 3172 0
-2061 -6381 4671 0
8385 -2265 -6402 0
-3757 1490 1347 0
-5905 -4270 -2945 0
-7068 -9504 7704 0
970 -8514 1636 0
-4322 -4223 -9700 0
6206 2569 -6151 0
6383 -4215 -5322 0
1092 -7742 3497 0
4347 -2422 886 0
-7451 5163 8890 0
-4971 9180 8880 0
-4452 -9772 -7500 0
-8934 -2738 -4177 0
4386 3539 3405 0
5361 9635 -6780 0
510 -1343 -8469 0
9206 8062 -6054 0
-7536 -7308 9346 0
-4519 -236 3571 0
-4719 663 4304 0
-9400 -2785 -5324 0
5381 5753 -8707 0
6800 -3651 -3915 0
-4753 2307 -9877 0
9575 9673 2200 0
-3966 8069 -619 0
5459 -7322 -6345 0
-5001 -9353 -6446 0
2382 -4655 9844 0
-1337 6093 9019 0
-5445 -1518 -63 0
-2852 7951 -4340 0
5345 -7601 7904 0
-3235 -160 6310 0
-5202 -7346 -7906 0
3938 8801 3311 0
-6876 -5491 -5398 0
3721 -9200 1331 0
-236 -6804 -3093 0
-4027 1734 239 0
-9446 3312 8342 0
8319 95 -7658 0
-7915 2173 4723 0
-9381 -5156 -7718 0
-2346 -9974 -2620 0
8204 2400 6840 0
-2673 -3926 9173 0
8821 6319 5741 0
68 -4571 5243 0
156 -6576 -6465 0
-300 165 4049 0
-597 1484 5085 0
8503 -33 -960 0
-7312 2259 -3594 0
-3275 -8050 9168 0
-8115 -5080 57 0
-177 983 7982 0
-8684 -4580 -4018 0
-9662 -1427 -2954 0
-2320 -949 948 0
-3099 -6709 8177 0
8979 3327 4140 0
-121 1992 5447 0
8089 4482 8822 0
429 -4133 -4064 0
-1044 -1038 -3519 0
-2288 1236 -9563 0
-8662 203 -7699 0
3685 7434 9832 0
443 7800 -2032 0
-8860 -8591 919 0
-8269 -3134 -8165 0
-9405 6589 -400 0
1093 9109 -8396 0
4751 -286 -8430 0
9456 -3789 -8440 0
-799 -4552 3105 0
9624 8993 -4859 0
1495 5230 -7455 0
-6385 -4505 9506 0
5364 -1364 -4210 0
7392 -1998 -4890 0
-4991 -5084 -6078 0
-9082 -8238 -4371 0
-1740 7360 8181 0
465 -6788 -1598 0
-3501 -4905 -3949 0
2622 -6944 590 0
651 -2936 3624 0
8949 1073 -8566 0
3449 6329 4298 0
3889 -1518 9863 0
723 -3646 -8187 0
-8136 -1474 3997 0
-5840 6308 6397 0
1629 -7116 840 0
-9137 1220 -8925 0
-3600 -4335 -2488 0
-5753 5062 5723 0
-6446 8770 9368 0
-5312 -2691 -4278 0
9762 193 -4830 0
5318 -3789 8314 0
6424 -561 315 0
8324 9799 9899 0
9569 923 -4835 0
821 -9464 5454 0
9275 3347 -6020 0
3033 6786 8713 0
7162 -2093 408 0
5517 8275 -54 0
-2708 -1531 -5333 0
-8246 5114 -7881 0
-3195 6209 -2978 0
-7799 5117 2371 0
4018 5528 313 0
9604 -6556 -7400 0
9389 -4741 3834 0
6498 -9609 -8197 0
-6331 -8945 -6228 0
6653 -520 1065 0
-1394 -8349 878 0
-1752 7046 1087 0
-5709 2573 -1920 0
-3236 8103 1080 0
-6726 -8322 -7390 0
-4782 -3782 9055 0
-5009 1596 -4917 0
1869 1016 -6216 0
-3723 -1145 -8434 0
5753 -3819 3505 0
3748 -8026 6618 0
8915 2823 3539 0
-7905 -1279 7016 0
-8227 3190 534 0
-7086 -1871 5623 0
7951 6261 7165 0
-4769 -4504 1501 0
3678 7572 -5770 0
-1039 4301 -5797 0
7128 5611 1019 0
1595 4555 -6757 0
4823 -5468 3729 0
-9694 175 -4513 0
7498 -3767 -4383 0
-7171 -309 2863 0
-8504 1614 7778 0
697 -2158 -9719 0
8932 -5249 9067 0
-2388 -9264 962 0
-6164 -5169 6323 0
-6608 3679 2487 0
7541 4797 9257 0
4000 -9922 -4582 0
-533 731 -939 0
7880 394 -4785 0
-7312 -4837 8929 0
4367 3236 940 0
8666 -8 -8980 0
-4539 -8080 -907 0
779 -9129 -8961 0
5090 5866 4408 0
8633 -5735 -4809 0
-8885 -6037 -3969 0
7451 5941 -1140 0
-5681 3910 1515 0
1603 3463 -636 0
3942 8825 -3568 0
7301 5148 -5626 0
-790 5217 -3171 0
-7028 -4243 9 0
9355 -8729 -6986 0
-6938 7966 -3762 0
5101 1139 -1402 0
-2954 -8124 7561 0
-5731 -623 485 0
603 -2255 -8296 0
5123 7872 -2834 0
-4755 -6636 4829 0
-579 -8583 2959 0
2553 -4209 -9190 0
220 -423 3881 0
-9 1137 -5845 0
-1913 -5276 4478 0
-521 529 -2738 0
-8348 7199 97 0
-9058 3289 2532 0
-3824 -728 -3361 0
3670 -9086 5797 0
4443 4593 5879 0
-2727 57 -6756 0
-7755 7477 1976 0
-6129 9329 -7264 0
8864 8705 3933 0
-8872 -3034 9268 0
-8103 -2283 4204 0
7646 -6329 -1819 0
1709 -6558 -5625 0
7054 -1883 2099 0
-400 -6716 -4959 0
4667 -2261 5390 0
-5604 6254 -1724 0
5085 -1012 -1966 0
-4317 535 -7988 0
8141 6909 1023 0
8740 8250 6467 0
613 -3829 9037 0
9233 9235 -4275 0
3225 -1142 7091 0
-1611 2223 -2450 0
6947 -4685 -8872 0
-6307 -66 -8880 0
-3521 8376 2801 0
-4460 3126 -3888 0
9127 2186 6588 0
3480 6481 4058 0
-7390 -6705 6854 0
-5845 -9245 -1058 0
-9034 6345 2326 0
-491 -6773 6050 0
3644 9047 1853 0
-2424 -9334 7567 0
2077 7375 -90 0
3259 4292 7208 0
8803 -5231 -5856 0
366 1480 -4801 0
3426 -7169 5005 0
8552 375 3864 0
1749 6440 -310 0
2794 7441 -2036 0
-8636 -5508 -605 0
871 -9142 3688 0
-110 9960 -7648 0
4271 -1334 6885 0
7303 3496 -4822 0
7053 -9963 5945 0
-3572 -5364 5083 0
4627 -1055 -5142 0
8311 -3513 -6590 0
-6399 7695 1452 0
-636 -5974 -57 0
-9131 9402 7241 0
3242 7900 -2264 0
61 -4060 8006 0
-9089 7038 -402 0
-6969 -763 -3432 0
-6053 -9265 -76 0
915 4250 -7385 0
-9810 9483 -1262 0
-6776 5001 3262 0
3500 -2607 -2082 0
3953 4789 -7939 0
4003 -2227 -6477 0
1270 2163 -443 0
-5386 9675 8936 0
-5868 1109 -1760 0
2579 9964 1636 0
987 1990 -1185 0
6474 7479 9497 0
-7068 -7327 -6532 0
5966 6993 -3238 0
5460 4607 -8407 0
9 -8593 -9457 0
-4033 -9417 -3784 0
2995 -4535 -3148 0
-497 -3007 7443 0
-9186 4363 477 0
4934 6778 474 0
7099 5814 8950 0
923 -4016 -8035 0
7954 5632 4179 0
8239 8240 -5654 0
-4531 -7228 -3200 0
-7266 -327 7076 0
-8741 4042 2260 0
-3597 7997 -3243 0
-7301 9154 -8332 0
-2385 7617 -6024 0
570 -5101 -7517 0
-7331 -5535 782 0
4246 1626 -5384 0
8841 -7835 6620 0
-8077 4940 -1067 0
-2199 9852 -4925 0
-4574 5340 -9234 0
7807 3081 -8707 0
-8731 3316 -2594 0
-3834 8241 -6333 0
503 -1988 1773 0
8307 -8211 -3966 0
-4428 112 3984 0
-6827 409 8274 0
4849 -4459 1613 0
336 5452 5375 0
-771 -4859 3366 0
3250 9509 -2189 0
9921 3151 1635 0
-1141 6496 8882 0
8526 -1854 7217 0
-9467 5494 -2652 0
-7592 4689 -8693 0
7323 1076 9270 0
6456 -9169 3113 0
3052 -3644 9582 0
-8107 -6324 -1613 0
-1265 2700 6724 0
3343 -725 2668 0
3583 7536 -2953 0
4413 -1127 3810 0
-5828 6517 -7368 0
70 -5740 -8051 0
-7009 -1433 -5691 0
3031 7568 5213 0
742 -510 4191 0
7832 4741 3134 0
5945 -5264 -8051 0
-4219 -2058 -564 0
-7342 9328 -8992 0
-2675 -360 -5457 0
-5829 -5620 4006 0
3163 5269 8450 0
-7205 -593 76 0
7250 3303 3971 0
4799 9540 7656 0
9779 -8813 -1273 0
-7509 -7632 -1481 0
-5290 -8571 6752 0
603 -5674 -6713 0
-2456 -9245 -1607 0
1921 -4524 -839 0
-5827 -4467 1779 0
7549 2549 -5411 0
7657 7640 -9200 0
7540 -9143 -9129 0
3128 -7243 -7374 0
1254 -9729 9276 0
-5938 2343 3968 0
4875 -5512 -9139 0
7664 -2274 -7848 0
4327 7125 7267 0
-6 7920 2493 0
-3846 -4563 -8046 0
6199 8925 7771 0
-2583 -1613 1709 0
-9349 6766 -8561 0
2996 -1946 2747 0
-9676 3457 -8321 0
7640 7170 1665 0
6118 8933 -4447 0
6152 -7399 3688 0
-7910 3668 -1493 0
3308 -7522 9510 0
7031 -1513 -1956 0
-7940 -6160 -9242 0
3086 6707 24 0
5290 -978 -4627 0
-5302 -7528 -1197 0
5949 -7726 -6836 0
3220 -7646 -6951 0
1210 -6458 -7400 0
-368 5982 7677 0
-8653 -1254 3259 0
4696 2706 -5280 0
5930 -5299 -6673 0
-9016 -704 6156 0
9207 -4600 127 0
-6149 -3884 -6837 0
-4177 763 -7989 0
3452 2760 -8744 0
5862 -711 -6216 0
6996 -7443 -5161 0
8009 -8921 6291 0
-3606 -6534 -1804 0
9188 -8044 3235 0
-2697 -9052 -6155 0
5787 8651 562 0
-4932 3689 -6533 0
-8976 558 -3572 0
-2317 9852 -8696 0
509 5818 -5943 0
9777 -6982 3761 0
-2389 6977 -3429 0
9916 798 -8496 0
4910 4500 -229 0
-3054 8630 88 0
-6102 8769 -7742 0
2489 9011 -6736 0
-9502 7211 -734 0
-1921 8272 -6145 0
-5362 7801 -5622 0
3398 -8740 -8616 0
-8008 -4886 5353 0
8968 -6830 -7849 0
-7953 7308 9255 0
3343 7400 -8728 0
-5172 4802 -6517 0
9739 -5147 6767 0
-9877 3482 3853 0
2111 -1082 -9225 0
-5029 6685 -8639 0
750 -5392 -8625 0
4322 -1442 -5774 0
-3078 9524 4206 0
-1495 1236 -8160 0
-3171 -4634 2319 0
-4174 6927 314 0
3171 -7891 483 0
2561 -1837 -2254 0
7027 -1236 1552 0
-29 8556 2344 0
6655 -270 -4847 0
-4890 5944 -5806 0
-5848 -1478 -2938 0
-5053 -9980 371 0
-6942 8290 1597 0
7586 -1891 5001 0
-5737 7201 7821 0
4028 -3570 8735 0
-228 -2256 -3100 0
1139 1392 -1061 0
5192 112 -9297 0
1454 4535 8427 0
-6080 5729 6578 0
3887 2632 -3566 0
-818 -1845 3067 0
-2616 -1433 -2791 0
2587 -730 -2785 0
9383 5662 -9745 0
-6848 2020 -6281 0
3122 8978 189 0
-5411 4223 -839 0
7117 -1900 -9230 0
1559 -2542 3159 0
4237 1492 -7038 0
-9913 -3939 2040 0
4653 7655 8278 0
-3347 879 3842 0
-5664 9437 -5715 0
-218 -2616 -5339 0
6934 4382 2572 0
8945 4290 5572 0
-4230 -2665 -174 0
-851 2732 9641 0
-2145 9966 -9683 0
-3469 3981 -5398 0
-5915 2062 -1264 0
2286 3346 -9756 0
-1027 -7986 -4452 0
1102 -9174 -8852 0
-6090 -275 -8159 0
4794 -6864 7325 0
5426 4636 4204 0
-3735 -7824 -2516 0
8457 3275 -4980 0
-9561 -8529 8206 0
-3513 5498 5140 0
1779 -2201 4962 0
-8651 4274 -2377 0
-47 -4504 7816 0
-1389 3282 591 0
7365 4239 -992 0
4781 1007 3052 0
1804 2273 -2148 0
8478 406 -2520 0
-8977 -5209 -7266 0
-6756 -6919 -8398 0
-1019 -4968 8874 0
4599 7374 2237 0
9551 -6799 4239 0
-2792 9379 9922 0
1517 9538 -7283 0
7193 -8540 1572 0
8522 1766 6023 0
-8446 37 -9832 0
-3394 -2559 4002 0
1670 -2737 4220 0
-8321 -7033 6308 0
-2714 5271 8502 0
3420 -5897 1862 0
-5808 -8897 -2208 0
-3463 5935 5730 0
-3459 4193 -9258 0
-5104 4153 9933 0
906 5051 3976 0
-7481 2565 -3942 0
-3582 3128 -1234 0
7866 -8416 -3241 0
-7573 -6906 6179 0
-8973 -38 -5826 0
4257 -509 4446 0
8996 -4287 3616 0
-4276 -8061 8659 0
6920 9336 -6079 0
-7163 284 -2491 0
-2295 -736 -6413 0
1451 -9876 3322 0
-6310 7977 8317 0
8906 -7589 -3542 0
661 -6089 -9144 0
2175 3196 -2912 0
-6488 5770 9961 0
-6014 -2015 7177 0
-4644 -4837 -6050 0
-5700 5043 9239 0
6144 5268 6336 0
2099 -8077 -5758 0
-696 3405 -3959 0
-9638 5501 5525 0
-6011 -8823 367 0
-5551 4062 8758 0
4532 9328 4518 0
-7029 -5881 -7398 0
946 733 3654 0
-14 -9855 8257 0
1935 8725 4473 0
6979 -5820 970 0
-3877 -7383 -3344 0
1370 -3853 -4527 0
-9825 -4133 -5263 0
8844 -2867 -8615 0
-329 3343 -6632 0
-5126 9973 -1342 0
607 -9204 1070 0
-1310 -6380 -674 0
-1872 872 2217 0
5337 -934 -6704 0
8481 -6178 427 0
-4274 9499 -9136 0
4836 -9548 195 0
2427 5477 1409 0
-7371 -9354 -6096 0
3234 -3521 -2423 0
8158 1463 -4821 0
3459 -5054 3241 0
141 4674 -1576 0
-6916 4898 -3637 0
-7188 2749 -1061 0
-2349 1465 -6921 0
-4449 5281 4858 0
3514 -8493 3372 0
-3946 8571 -5481 0
-9309 7990 3455 0
-1891 -6722 -9277 0
-4272 6590 5602 0
5302 -1136 -4462 0
-1794 -964 5596 0
-3145 -8595 3542 0
-5319 1269 1182 0
1463 9609 386 0
-5110 8441 -9693 0
9037 -936 3681 0
7181 9849 5032 0
-3101 5895 6664 0
-5712 -4366 8244 0
4902 -6565 -3802 0
2390 232 3190 0
7034 8594 1978 0
-7549 3657 -2908 0
6898 9840 -8689 0
8950 -9511 8970 0
2074 3391 6022 0
6575 -2766 -8723 0
-5223 7088 -9012 0
-4531 3481 -7243 0
3052 1211 -4071 0
-2929 8209 -5215 0
5795 -7798 9053 0
-5710 6914 -188 0
646 6973 9665 0
-9466 9007 8714 0
-2113 2069 9794 0
-2173 -3585 -6397 0
-9405 2930 2808 0
708 3208 4656 0
3967 8562 -5506 0
8491 -5358 -6499 0
-3493 -2793 -2625 0
6944 6013 3923 0
3426 -8947 9453 0
113 -4240 7913 0
2810 3355 1138 0
2516 -2902 2467 0
-1651 -7782 -7183 0
6530 4583 1644 0
9967 9214 -4101 0
1747 2052 7446 0
-3617 -6721 4352 0
-5049 -1263 7337 0
-7312 -7224 8762 0
1331 -8122 -6360 0
-8124 1385 -4374 0
-8358 -4579 -9897 0
-2166 6337 1228 0
-7331 1052 5780 0
-8839 -4205 1763 0
-9218 -4022 4344 0
889 -2313 -9963 0
-445 -1700 4880 0
-9131 4106 -32 0
-6469 -3721 -8718 0
-3499 4970 1048 0
-346 2749 -931 0
4153 -1000 1817 0
-7158 -2230 4013 0
8005 -8824 6455 0
-9533 1716 698 0
9601 -4805 -4107 0
-5387 -1496 -9083 0
-6483 2551 5284 0
3323 987 1951 0
7398 -8953 -5000 0
7535 2016 4889 0
-9002 -1730 4731 0
-2229 -3017 -3975 0
9175 2529 -4637 0
-2367 -4267 232 0
5823 -6793 7075 0
9479 8172 128 0
-2793 -6989 -5677 0
7741 7033 5397 0
-1503 -7121 -1326 0
9799 -642 -7757 0
-4630 9248 -6904 0
-1640 -4549 7257 0
7324 -7824 4923 0
4922 -7266 9777 0
2535 214 -9344 0
-9335 9109 -3229 0
-9873 -6230 1378 0
-2717 -5446 5166 0
3291 7517 77 0
-161 113 -7914 0
-2297 1200 9641 0
-7975 -2667 -9429 0
7742 -3475 -663 0
4575 -2440 586 0
5934 2450 3567 0
-5471 870 -8232 0
2170 -9621 -8600 0
-8772 2719 -1436 0
-9251 -7506 -8092 0
-5729 -2456 1444 0
-4324 -6825 3624 0
-4481 -6415 -9976 0
-3797 6244 -9741 0
-5552 -1409 -1533 0
7470 9342 -3728 0
8469 -8077 -569 0
5600 -3134 4814 0
380 8266 -191 0
6486 8549 -993 0
6019 -8114 -3218 0
5661 -4728 6294 0
-5472 50 -5401 0
9149 -7917 2608 0
-6156 2940 -4622 0
946 -4216 -330 0
-8044 -8570 -5032 0
-84 7264 -9726 0
8838 3992 -400 0
2929 -5306 -4451 0
4499 3535 -5412 0
-9055 -4495 -3155 0
-8832 1346 -1765 0
8597 4849 -666 0
8612 -8134 -9221 0
-8307 543 -4938 0
-2470 7951 -6468 0
4930 4025 3433 0
-531 6823 9548 0
5181 -8376 -6445 0
6338 940 -2968 0
-3339 -9558 5653 0
3209 2442 1917 0
2174 5683 -5747 0
852 -9922 -2723 0
8411 4607 550 0
1176 -2787 5836 0
1582 -9229 2588 0
4115 217 -8433 0
8222 6929 -8423 0
-1527 3880 -9180 0
-9662 6616 -5686 0
5851 -2661 -5158 0
-8465 -3481 -3392 0
4092 3157 3231 0
-5939 3534 -778 0
2469 -1028 -5945 0
5949 3138 -1496 0
7017 -1242 1701 0
799 -3002 3574 0
5464 3106 512 0
-6503 -9918 -3895 0
-4067 -9003 -8144 0
-7261 -6158 4996 0
-7710 -9050 -2353 0
8244 5788 1738 0
-2942 1092 -7503 0
3190 9237 -3477 0
-9676 7901 -8873 0
-3467 -2724 6597 0
1362 1523 -4936 0
8578 -3367 -4427 0
3486 -9349 -827 0
-7608 -6390 -2150 0
-3581 3116 4792 0
-2045 -5556 5426 0
720 3474 369 0
-7546 -3396 7483 0
8143 -7820 2103 0
2449 -9421 8633 0
3574 2409 9575 0
2038 1052 6839 0
1186 5473 -3163 0
-575 -4911 4560 0
-9793 2184 4342 0
526 2366 -5 0
391 8494 -6323 0
-3108 -8374 4568 0
678 8549 7235 0
-1573 -6048 -2705 0
7929 7159 -9804 0
3696 6985 -1745 0
-8690 -2242 -9372 0
-93 666 8780 0
805 1967 -5687 0
-5551 -3034 9265 0
-7185 6374 -1927 0
-1049 9199 5445 0
7777 1158 -3974 0
7091 -9290 -7801 0
6978 -89 8900 0
-1904 7985 4933 0
-5329 5645 2064 0
4893 1698 -8068 0
-7739 7476 4654 0
-9454 5511 5680 0
-5595 3673 -7855 0
8695 9871 -4040 0
9581 -7490 -6177 0
-673 -1754 -2091 0
1821 -3253 4864 0
383 -7123 -6974 0
7549 9187 -5786 0
5640 2112 -1253 0
-8365 6846 9337 0
8167 -716 -6022 0
4236 -5828 1757 0
8215 -241 -8609 0
-6320 -5453 -2485 0
-6854 1233 -4380 0
-1421 -1278 6397 0
8504 4179 -498 0
-1976 767 -4576 0
-1023 -2742 -5775 0
4391 -2244 1143 0
4518 6343 -2538 0
8208 -4167 7882 0
2410 -5089 7332 0
-4377 -9799 1560 0
5746 -4525 -5658 0
1079 -5029 2506 0
-5786 7169 -7047 0
-8830 -4527 2781 0
4247 1827 -4323 0
-5581 -2015 2838 0
-3188 7631 5194 0
2710 -973 5745 0
-7305 8715 -5614 0
-1454 -6366 4204 0
-6402 7316 8841 0
250 -1699 -7434 0
8138 5554 671 0
-6249 2082 -2673 0
-4307 -5392 -6002 0
5673 -4387 2827 0
-5481 1821 -1547 0
2178 -9763 9886 0
8619 1883 -3220 0
1466 1597 2437 0
-4968 2985 -224 0
-4074 5054 -6257 0
-1753 1249 9149 0
9476 6865 -5578 0
-8205 724 9554 0
-579 -9297 -8746 0
9638 -4998 7240 0
-9364 5795 -2440 0
653 -6004 1700 0
2106 4056 -3104 0
-7228 877 2141 0
-7954 -3415 -4725 0
4577 -8467 -4837 0
6828 -246 -9602 0
9744 7543 -7873 0
9484 -9274 -2074 0
7820 2222 -7012 0
-574 3834 -2418 0
-2015 -7517 -456 0
-5001 -2337 3455 0
4354 7727 2005 0
-6050 4837 -6997 0
6554 1930 -169 0
6087 -6826 -7494 0
-9155 -2287 5956 0
-9481 7118 3161 0
2650 330 -5901 0
5548 -3116 8339 0
-6412 -5868 -2090 0
-9216 7659 5427 0
-7286 3224 -5899 0
-59 6858 -3948 0
-1431 -3936 7850 0
2036 4100 6000 0
-9183 9653 5059 0
-3653 8986 -2975 0
9000 8594 6065 0
2262 832 703 0
1193 6650 -1520 0
1364 6362 5315 0
-628 9926 9738 0
-831 4700 6019 0
5985 6982 7921 0
-7409 5542 9734 0
2300 -9001 451 0
-4389 1270 4364 0
6405 7655 -8695 0
2816 682 6077 0
6844 -9514 3103 0
8086 8071 -806 0
1550 2732 7219 0
-6179 1737 -76 0
-3527 -734 676 0
-8779 2205 1737 0
9545 6812 -888 0
-1260 3612 4216 0
-811 -8279 4505 0
-8193 -9408 6577 0
-7337 -6146 -4848 0
8696 4632 -9929 0
-1941 1921 8961 0
-6212 -2678 9491 0
6502 9467 4326 0
2113 4476 -7658 0
-3397 -9471 9301 0
7194 -796 8476 0
1898 -6557 1573 0
-5185 2254 -5950 0
1875 -8087 -7546 0
9757 -6625 597 0
5529 -2571 -6343 0
5868 -2981 -7048 0
2185 -2253 3303 0
9596 3337 -9877 0
-4390 -6000 425 0
-6846 1046 -2046 0
-7428 2824 3296 0
-3123 -3809 -9637 0
-2064 7108 -4555 0
2553 -7575 -4331 0
-6881 3282 7555 0
-6455 7654 -9814 0
5058 4354 7029 0
-3061 -9997 6782 0
7803 9088 2102 0
-6548 9296 -1934 0
-4483 -4038 773 0
4503 551 -4916 0
4927 6634 1935 0
-5725 -2574 -5156 0
-6890 -3273 -5015 0
-7052 7911 8114 0
7192 -1986 2274 0
945 -4216 3744 0
-4744 3144 -6355 0
-8941 -8204 -8188 0
3445 -4775 7921 0
4606 -7382 2440 0
-9597 -741 -8321 0
-3086 5848 -6147 0
-1191 -9993 -754 0
7150 1204 9143 0
-8102 -5082 6390 0
-4270 5375 -1205 0
-5702 5550 -1543 0
9758 6122 -8271 0
-2462 -5613 -7574 0
4005 83 8174 0
-3849 -9513 984 0
-9558 5740 7359 0
2658 2517 6943 0
-9371 -2482 3766 0
2714 8062 -5569 0
8649 -7110 -9563 0
746 -2478 4175 0
3285 -9179 4253 0
7389 -6796 333 0
-7828 -3044 -295 0
-6380 -3584 6669 0
1604 9485 3179 0
939 2578 -3508 0
998 491 -1081 0
3998 4539 -1027 0
8823 9737 -6751 0
1580 -6412 -1063 0
-4771 567 8847 0
-7622 7023 -4716 0
-2170 5070 9419 0
7206 -7857 -5750 0
-9114 7290 -3760 0
468 -1279 -580 0
5583 1898 6903 0
-5906 8184 9847 0
-2271 4977 1206 0
-9595 7698 -9182 0
3857 -4776 -1420 0
1796 2922 4443 0
-6681 -2168 -5936 0
2450 4774 -9763 0
-7512 -9564 5798 0
1109 9740 3495 0
1069 -3707 9886 0
-7312 9305 -1190 0
8063 -6762 7454 0
6287 -9469 2866 0
4017 -8518 -2270 0
-6654 -959 6346 0
9453 -913 1418 0
-4486 -6693 -4187 0
1847 -492 4215 0
-1110 2694 5985 0
-7990 7942 -3398 0
-4048 2008 -4620 0
2244 2583 477 0
3050 -1277 -7155 0
-5122 -44 -4344 0
7775 5235 2107 0
-6453 1884 5646 0
-5746 -3268 -1380 0
-3580 5029 -6530 0
-6133 3479 -6003 0
1519 8952 -3254 0
-7103 -2066 -7467 0
-9575 -9698 3853 0
-7339 3482 115 0
5538 -3366 3714 0
-7839 7987 -316 0
2590 -7436 -2635 0
3885 -220 3404 0
-5931 7888 -6262 0
2263 2398 806 0
-2655 -1485 1458 0
-6145 4138 4598 0
7271 6920 6854 0
4636 7120 -6556 0
6804 -9911 -2206 0
-6280 1523 -2342 0
-1027 6225 6046 0
-335 9182 9317 0
7939 7232 1899 0
4211 -3765 -6282 0
-7749 -1248 3983 0
1789 8972 -7313 0
6859 5251 2141 0
4222 -7529 -6917 0
2216 -2185 6932 0
941 5083 4621 0
8702 -9832 -8960 0
8701 2893 211 0
-6007 145 -8274 0
6661 1723 9799 0
-9397 -5082 -3194 0
-5437 4034 -307 0
7321 3425 -6756 0
-7879 -747 -404 0
3134 2645 8945 0
9258 7765 6676 0
-697 6547 -7112 0
6296 1345 -5450 0
4294 5331 -6048 0
-1583 5729 6816 0
-7727 -3011 6288 0
-5733 3027 -7356 0
7069 8122 -5892 0
1892 -1056 -1859 0
-7720 7427 5729 0
6572 -2283 -4971 0
3966 3640 7148 0
-2560 -5769 1338 0
-8963 6095 5904 0
-2246 2965 -2727 0
6743 770 -4612 0
-8700 4186 20 0
-9380 -7675 8422 0
-5391 1199 -8043 0
5587 7004 -7411 0
-5119 5426 2907 0
5014 9179 -1572 0
4411 7673 1765 0
4187 758 -5821 0
9767 7093 -4137 0
8188 5039 -7777 0
-9473 2885 -7619 0
8788 8542 -7423 0
-2337 -8876 -2412 0
4773 3980 4130 0
-620 -3626 -4358 0
-243 1673 41 0
-541 -6565 6763 0
830 1147 9084 0
-2354 2190 9526 0
-9633 -7204 5113 0
4323 -2999 -8409 0
6383 142 809 0
-2091 -2644 -6735 0
-4290 916 5534 0
-1053 -7197 -6856 0
-2543 -184 -7473 0
-1196 6989 4927 0
9679 -435 9180 0
-6279 1878 -3 0
-4835 4282 3852 0
-7551 8205 6352 0
4720 -6593 935 0
2260 1568 -1303 0
332 -7034 419 0
831 7231 6630 0
-5600 -8638 -1754 0
-9216 -1522 -1292 0
3617 3011 -7399 0
8755 -2412 -3979 0
4868 -2343 3906 0
-5154 -3598 -283 0
-8271 3748 -1530 0
3388 -9890 -8725 0
-5817 8139 6460 0
4501 -1414 2958 0
6955 6321 -3294 0
2040 8194 -6437 0
3893 3037 -6176 0
6090 -8577 -2838 0
-4816 -6078 -2558 0
-5558 -597 -7464 0
-5938 7288 9570 0
-9833 5389 239 0
-6957 2523 1892 0
-3514 -5420 5444 0
7266 3531 -6683 0
-6409 -9184 2513 0
-3727 4653 -3465 0
7747 -5226 2590 0
6051 5647 -1637 0
2159 -9088 6146 0
739 -2503 1532 0
-9741 -8720 1331 0
830 4113 -7619 0
-9229 4114 -6227 0
-4741 4002 -2479 0
-493 -7198 7055 0
-2279 6492 8154 0
6078 -9711 -4617 0
-4065 -5440 4378 0
4411 -8717 -1140 0
5096 -4794 6582 0
-2303 5513 8642 0
9435 -7672 84 0
4540 3539 -9608 0
4421 9035 -1211 0
-6774 5615 4223 0
6757 136 8879 0
5808 -7739 5830 0
4782 -145 1708 0
101 -9900 -3392 0
-3118 -9501 -1631 0
7073 1090 -5255 0
-8279 2570 7927 0
-4567 6219 654 0
9824 663 -3932 0
5207 5122 752 0
5386 4093 5526 0
2969 5715 8435 0
-5831 -224 2451 0
-9451 -9441 4557 0
8126 520 -7944 0
3348 9272 -83 0
-5901 9839 5153 0
-7343 3196 -996 0
9338 398 6239 0
7968 3917 2505 0
8038 -5390 1175 0
1286 -3690 -1634 0
5902 -1643 2353 0
-810 4672 5834 0
-3924 -2040 -1596 0
2818 9004 8180 0
5964 7436 -5271 0
1178 -4281 -5766 0
8178 7931 2047 0
-3464 1803 -1024 0
8211 1882 -5269 0
-6945 2020 8127 0
9501 5815 -149 0
4239 -4546 -906 0
-7134 -2294 -9547 0
-957 2180 -4926 0
-7787 6949 4418 0
6314 -1810 -8368 0
2336 5848 9936 0
-2078 -1907 41 0
9917 5260 294 0
5398 -8200 -2003 0
4211 3974 8098 0
-5843 -5670 -5698 0
4691 -5634 8802 0
-2146 -8752 1109 0
282 -9724 -2007 0
-3194 1933 -5532 0
-845 -9274 5458 0
-5366 765 227 0
5716 -8933 388 0
-7208 -7096 -4398 0
2403 -2291 -5502 0
-4780 -8431 -9342 0
354 -7986 -4500 0
1032 1705 7288 0
1321 -6616 8647 0
-3859 -3538 2045 0
-1183 5677 -2557 0
-3140 8436 3709 0
-5254 -8596 -834 0
-4316 8901 -9712 0
-5148 482 1998 0
-5894 -3767 -3806 0
8082 -3575 -4117 0
-2644 1369 3411 0
7134 -1412 -9355 0
-4588 -5338 -2645 0
-7026 4386 4563 0
-937 1281 1116 0
-6220 -672 -9831 0
3005 -9253 453 0
-1071 -3385 -6132 0
2683 -3342 -2406 0
-2991 4234 3487 0
3274 -5638 -933 0
907 -5284 6550 0
1495 9837 -4502 0
2686 8155 -2215 0
6679 4154 -4400 0
-1140 3099 4431 0
-4811 7694 5763 0
3674 -7486 -407 0
-9696 -7177 -4595 0
7645 -8189 -7574 0
-7593 -3686 -1183 0
-9140 4836 6939 0
-5423 6568 705 0
-9553 5631 -6013 0
-4892 5261 9916 0
4608 5088 9866 0
7943 8815 -665 0
9739 -4279 -5332 0
9185 -7399 1943 0
6547 9763 8862 0
-1734 4577 6409 0
9227 -8566 3959 0
-4808 -9538 7113 0
249 931 2887 0
-4993 -9737 -3252 0
4381 -2271 -9598 0
-241 -2463 5416 0
-2038 9128 -90 0
7892 -6343 8451 0
-9547 7987 -9958 0
-9917 3858 40 0
5731 6883 1429 0
6608 8026 -3694 0
-5050 1784 2215 0
-5395 -6874 592 0
-9572 4960 1704 0
-8442 -8102 8223 0
-9563 7724 1807 0
-591 2743 5003 0
-8977 4387 5721 0
9296 -5720 -9081 0
-7714 1262 -1185 0
3189 -5330 -6915 0
-7621 3996 -8750 0
9464 3028 -5855 0
3332 9404 8218 0
2449 -3277 1453 0
513 7652 -8955 0
3986 -753 -2179 0
-2131 463 -1382 0
4211 5479 7641 0
4227 4507 -9532 0
1382 1670 -6732 0
9028 -2245 1078 0
-4855 5731 2880 0
-3191 -8879 2762 0
3769 5967 -8233 0
-9512 5777 -2242 0
4922 -3106 2020 0
1844 4565 -6274 0
-8164 3970 2687 0
6151 4439 169 0
9412 5866 9178 0
-929 4945 7286 0
466 -4217 -1624 0
-5556 1361 -7058 0
8631 -3461 -7541 0
7247 7769 3062 0
1484 5794 8514 0
3458 9017 -8682 0
6891 4200 8480 0
-2790 -9396 3615 0
-7654 -9344 -2139 0
-8278 6618 -3612 0
-7241 -7119 -9093 0
3306 3334 -8994 0
-4440 -5483 -3933 0
4428 -2028 9187 0
146 -6728 -7459 0
-2718 -7230 9021 0
-7685 -8280 9532 0
5082 -1786 -209 0
-9066 6255 -9304 0
8865 -6307 -3666 0
6495 5090 -2236 0
9579 -4227 -4608 0
6136 -8702 4388 0
-1370 -3725 7845 0
-4728 -345 7673 0
9513 8499 8464 0
-4886 4659 493 0
8204 -4852 7648 0
652 -5132 8172 0
3188 -5660 -3647 0
9931 1460 9556 0
-3519 4422 -7041 0
2351 2498 -3316 0
7795 3913 615 0
8152 -3311 -5826 0
9462 6735 2274 0
-8821 -2064 2908 0
4255 7539 6179 0
1452 -156 -5233 0
-9151 6471 -6745 0
2919 -263 -3520 0
2960 -6096 -4487 0
8749 7128 7899 0
-8373 3281 3045 0
-3639 6877 -302 0
-6311 -4901 -2506 0
1464 -2203 -7858 0
-2814 8951 4240 0
309 -5816 9891 0
-3829 -7880 2872 0
-4978 -3339 3394 0
-8545 -5156 4895 0
3861 3481 7024 0
851 6785 6022 0
102 6453 -2077 0
7326 2313 5568 0
8008 9481 -4330 0
6998 -1910 4442 0
-1443 -6492 -4479 0
7035 -8145 3613 0
3334 -6646 5575 0
5927 -6874 8956 0
3428 -6491 6002 0
-7565 8471 8743 0
7465 8056 -7030 0
-8488 -8525 -6074 0
2836 6415 -5125 0
-1435 -9181 3543 0
-239 -4722 -8542 0
-7798 5180 -916 0
188 8491 8804 0
-1415 6175 -8793 0
-550 3981 -3101 0
-3083 4511 -3961 0
8376 2432 -2446 0
7904 871 3161 0
3955 8494 74 0
-3062 -9409 6648 0
1496 -1299 -2549 0
-2663 -2920 -5694 0
-168 -3257 -9692 0
-913 -927 -7033 0
4618 194 -278 0
-6966 7466 4987 0
714 8715 594 0
-108 -928 -8731 0
6749 1165 7476 0
-2735 -5181 -4708 0
2985 -4440 2618 0
-5467 -8381 -771 0
6343 -9937 9401 0
-6946 281 8595 0
-350 1256 9776 0
-9147 -4530 -6065 0
-4838 2689 -1368 0
-3601 2057 3666 0
5497 158 -6823 0
-9859 -752 -1394 0
-21 -5201 -478 0
6224 8213 -2720 0
-7691 -4468 8997 0
3580 -7110 8768 0
7259 -8665 -3872 0
8654 -2169 6579 0
-230 7716 -5733 0
-6439 -2403 2774 0
-7807 -8113 6399 0
-7388 -9986 6790 0
-4206 -7854 -6831 0
567 3316 4557 0
6004 -9015 -9826 0
2452 -9465 6517 0
-84 -9796 -720 0
-9950 1664 -6886 0
-1881 -1347 8606 0
2900 -3205 -9627 0
-2195 -9326 -2852 0
-8126 5395 4760 0
-8510 -2570 785 0
7087 4581 3167 0
-8197 -6349 5024 0
-3806 -1465 -8510 0
-9195 8170 -2501 0
-1360 -5576 -150 0
-4409 -3354 -5807 0
3542 -2890 1241 0
1692 -4435 1438 0
-5565 7547 -2655 0
7928 6645 5448 0
1081 1574 5991 0
-3324 9900 4140 0
3128 6773 -4527 0
-8320 -5998 9729 0
-6020 8097 178 0
9654 -8407 -6841 0
7036 1542 -9848 0
-7699 -8925 2470 0
3088 1649 1329 0
-9197 -429 -5083 0
-7113 -2539 -2439 0
819 -9613 -2443 0
-8591 -834 5617 0
-7248 8871 7652 0
-590 4392 -36 0
-5516 -8271 2932 0
-7535 -619 -4921 0
6505 -9573 -1913 0
-2954 -3658 -6570 0
-9609 9234 1322 0
5293 3405 -1958 0
-5882 6216 -5328 0
-7758 -2240 -171 0
-6707 -8610 9969 0
-8114 1733 -7351 0
3010 2501 8103 0
-9825 445 -967 0
4811 989 2095 0
161 -2598 8179 0
-8791 -1596 -1526 0
-301 -9725 -6630 0
9425 2714 9888 0
2325 -7593 -1436 0
-170 -7458 1441 0
-3962 -9278 9436 0
8771 4636 -791 0
-1183 506 2982 0
5425 -7969 5469 0
-7502 1877 2395 0
7493 -7457 6017 0
-8203 -1568 -7288 0
4193 -2857 5276 0
-6486 1463 -9005 0
5594 9267 -867 0
2340 -9550 4478 0
-408 -983 5062 0
3332 -2993 -6130 0
7607 1750 8671 0
3896 -195 -337 0
-5567 -3909 -1991 0
-8698 -6886 4476 0
2604 -9815 -6068 0
6162 -4394 2376 0
4452 4349 4056 0
634 9699 -7171 0
4698 346 -22 0
5111 -557 -4313 0
-7522 2718 3826 0
7522 1043 7276 0
-6009 946 1726 0
-7373 -5920 8333 0
-2907 -8793 -3827 0
5188 9079 669 0
-1178 132 8391 0
-8572 -9377 -5013 0
9531 -4835 -5733 0
6957 2940 -2712 0
-9838 -4908 -4198 0
-3382 -7420 -801 0
2546 -5403 -5231 0
-2809 -5315 6952 0
-6371 -355 -5194 0
1119 6456 -2634 0
-7367 -8899 846 0
-6535 8451 -8299 0
-5146 3505 -9513 0
-5389 5226 5670 0
4187 2248 2285 0
4924 2167 258 0
-989 -6782 -2635 0
768 -6605 -3009 0
-8772 5320 -4425 0
-8604 9577 8481 0
-1271 -5933 -5887 0
-3352 -3395 -3967 0
-3690 8706 -2172 0
-4747 -6588 -4579 0
-858 5755 -1389 0
-3509 3987 877 0
9032 -9568 2618 0
-9783 2439 -6433 0
4096 -8785 -1229 0
-9824 -7101 7790 0
4440 -1065 -8129 0
-4911 -3945 -5854 0
906 8604 3863 0
-1514 -3094 -9466 0
6022 1409 -2518 0
-8326 -6344 574 0
-7903 -3115 2935 0
-7725 -7046 -2281 0
-1739 8139 9952 0
5859 -1528 -3422 0
-170 9167 5453 0
-7004 9702 398 0
170 7821 -4559 0
3332 -1352 -4549 0
7823 -2280 -1259 0
5811 1859 -6328 0
751 4374 -2874 0
7129 -7247 5464 0
-5531 -8754 6882 0
4722 -3588 -7131 0
6520 -9743 -3304 0
2860 -6057 9820 0
1677 -4015 6182 0
3039 -6047 -7376 0
-3982 -3731 9372 0
-8632 7050 -587 0
-1470 2424 -4292 0
-9945 9224 -1292 0
8138 -9895 -9048 0
-715 -8916 3729 0
-3217 -5281 3374 0
-3528 -4093 -689 0
9578 6497 8477 0
8681 3834 5662 0
4661 6670 -4059 0
1687 600 3695 0
9037 2084 1510 0
-6162 -1878 -2841 0
-5824 -8923 -2728 0
9415 3563 -7820 0
6184 -2759 5049 0
-7353 -4729 -3459 0
-5850 -9305 5169 0
-3172 -192 2678 0
-1652 -4289 -6254 0
2978 -8280 5335 0
-3259 -4027 3645 0
-4238 6619 -426 0
-7335 7379 -2936 0
7552 3838 -2589 0
-3282 -7387 3388 0
-1233 -1751 8952 0
610 -1217 -3696 0
-9545 4928 -7168 0
-2458 7461 -4345 0
-4802 -1759 -6836 0
4477 1564 5226 0
782 8344 2196 0
-2591 -7338 7719 0
5942 4545 -8652 0
-3457 9858 -9740 0
-5035 -3387 8522 0
-9017 -2990 4557 0
-2118 627 1435 0
1525 988 -4755 0
2158 -8691 -8630 0
-4989 2268 -7049 0
-2359 -1188 1830 0
-9139 37 -2683 0
-3634 -1865 9950 0
8869 -3416 3438 0
2521 -5060 6730 0
-906 5166 -340 0
5393 1395 8295 0
-8645 -3969 -1997 0
2002 5528 3063 0
9633 -2667 5405 0
8499 1889 4576 0
-7505 -6151 7118 0
-6328 3802 948 0
-9857 6743 4184 0
-4441 9357 5728 0
6733 2536 853 0
2012 8010 -9327 0
-402 -4424 8290 0
9483 -4523 5604 0
-3167 3041 -6760 0
-8159 4461 7413 0
-6400 -6148 2177 0
8907 -9198 2514 0
-4244 3521 -7385 0
7404 5666 -5745 0
-4232 -3795 -7623 0
388 9548 9198 0
-8600 7409 2262 0
7816 -6484 -4537 0
-9275 8946 -4879 0
171 -6792 -987 0
-6653 5323 -1072 0
-5374 -8092 548 0
-4133 -3022 -6097 0
9723 912 -7329 0
2117 3910 -5560 0
-7667 -5363 5938 0
9646 -8872 6037 0
4442 -3537 -776 0
4260 -5235 -8540 0
-9742 -5509 4849 0
7669 8750 5305 0
-5427 -5678 1863 0
8370 -8534 -8856 0
6994 -2233 -5634 0
2152 -9401 5024 0
6114 2037 7736 0
-5262 -7774 -5254 0
9745 -84 -6289 0
-4346 -5592 -9098 0
5888 802 3138 0
2040 -192 6280 0
8605 2412 787 0
3566 8275 -7264 0
-9583 -6744 -2591 0
-8747 4947 7033 0
9084 9728 -3611 0
5866 5561 -2299 0
7460 4372 1353 0
3124 4566 3932 0
-7719 7534 9181 0
-149 -7307 -4158 0
6628 -1985 1811 0
-5774 -818 -7911 0
-5621 -4872 -2750 0
-490 -7835 8192 0
-2058 -6921 -8495 0
7067 -8125 -1908 0
-4799 -7221 7226 0
-6334 1351 -9712 0
-6308 -6293 1707 0
4571 5000 9525 0
-4393 -7385 -7536 0
-8295 -584 3080 0
-6079 2818 2597 0
-4964 -4429 4242 0
-2956 -3148 -335 0
6337 3981 3576 0
7609 -7578 -6128 0
6194 6368 4597 0
-7204 1958 -775 0
1233 7232 -5561 0
9145 1520 9816 0
8507 -7769 6049 0
1593 -7072 -6612 0
-1597 2584 -8688 0
8485 -5294 -9044 0
2431 9956 -5877 0
-8114 9994 -397 0
1769 4509 3048 0
-6712 3797 -8590 0
-1114 -2605 9190 0
-3086 1774 -2534 0
-483 6734 -3805 0
4802 6727 8097 0
9881 -4938 -7669 0
-3893 6640 -5397 0
-5421 -7057 -6498 0
-1444 1959 8759 0
3389 -2795 5154 0
2432 -8478 -342 0
-2384 -4522 9368 0
4342 8691 2452 0
-9106 -8449 3177 0
8988 -131 -6153 0
-1025 -5298 -8697 0
-4507 -8458 6060 0
-5463 7211 1274 0
3795 -8013 6481 0
3841 2797 -8192 0
-5812 -8968 96 0
5270 -8792 8349 0
-7181 -4847 3063 0
-5927 651 5542 0
-4971 -2490 -7573 0
-9466 4972 5876 0
2889 -2939 -198 0
3356 5380 4432 0
-2074 1269 4391 0
-4093 9592 -9361 0
-3096 1991 8468 0
-610 1451 -2664 0
-278 2086 7290 0
7409 7069 1856 0
1331 7475 6931 0
-1463 5298 -5541 0
-879 -7527 -5389 0
6769 7332 3973 0
4228 -915 -7203 0
6953 2505 -8319 0
9726 6215 -7914 0
-5111 -3245 1822 0
7719 4791 202 0
-6777 3519 635 0
-7584 -2850 -6137 0
-8673 7565 -7146 0
-7526 9963 532 0
5461 3394 3829 0
-2599 -2102 -1675 0
1509 -8704 -9651 0
-4361 -8909 5484 0
-5346 5514 -2999 0
1522 5972 6199 0
3987 -6652 -6532 0
3582 9460 2382 0
-5656 101 -5594 0
-6929 -4040 -3114 0
808 -4860 -4819 0
-3021 4222 -2072 0
3296 -1844 -7882 0
-3851 686 6700 0
2741 9689 -77 0
5559 -7745 -8870 0
-8685 5313 9203 0
-5213 -3075 6202 0
657 -3940 7068 0
-4927 3351 2805 0
-8178 -1295 -5878 0
2063 9276 5895 0
-1608 9342 2627 0
395 -7367 9331 0
-6900 -6957 -4622 0
-5597 281 -2599 0
6617 -4671 -9416 0
2700 1145 -6572 0
-4262 7559 5297 0
5874 -9312 3151 0
-3777 614 4656 0
-159 -1416 9022 0
7603 -9244 7204 0
-3024 -9742 2682 0
8251 -3692 7208 0
4294 -7232 -1756 0
9660 -5330 -8826 0
-6773 4832 -8246 0
1452 -8602 1819 0
6017 8324 -7928 0
9931 -3651 -225 0
7132 -5272 8228 0
2568 -4896 -731 0
4251 7989 1821 0
8355 817 4967 0
-2658 8763 -1403 0
6766 -3397 -5027 0
-37 7856 -348 0
9485 -7731 9295 0
3776 8300 -9779 0
-9390 -7340 3062 0
-2758 -3874 1743 0
-8568 -9411 3610 0
-608 5199 -7513 0
-113 3388 -197 0
9214 5173 5678 0
-8748 -47 -2341 0
-508 3736 -471 0
-3783 -9092 5011 0
-2262 6130 -6726 0
-3819 -2218 8228 0
-7878 8259 -2617 0
8732 -3659 418 0
-2151 2244 -1153 0
-3228 9530 -7674 0
8683 -7618 2095 0
3639 -3198 9475 0
9540 1091 -4237 0
-1167 -2011 165 0
-637 -2148 -7494 0
642 9962 2586 0
-7348 -3021 -1722 0
2108 6139 6096 0
4566 -184 8626 0
-3795 -4741 4603 0
-8232 -6188 -8227 0
-1279 7255 -2988 0
-4303 4447 -8759 0
1508 9086 1292 0
3761 -4383 214 0
7270 -9701 7032 0
-2083 5306 -6423 0
-548 2267 694 0
5713 -643 2054 0
-1832 1107 -1344 0
2462 -1259 6767 0
-9281 -2603 -861 0
-9194 8614 -6797 0
7439 -8125 -7919 0
-7620 -3182 -6907 0
-8835 -8474 5126 0
-5102 6670 1441 0
9134 -4139 4954 0
-695 -3784 5567 0
-4881 -2018 2216 0
-3171 8661 -4796 0
-3745 -8034 8613 0
3006 -2531 1217 0
4269 -515 -2872 0
-5487 5793 -8902 0
-8365 -8156 -9189 0
-9312 401 -4955 0
-7758 1056 2706 0
-4799 -8460 -9166 0
-7960 2309 -5980 0
-2598 4145 394 0
-6730 -1950 7991 0
7000 293 6939 0
-7666 6353 1764 0
211 -9861 8012 0
-2125 3837 6375 0
2717 -3538 -3490 0
-4750 -7340 -5222 0
-8433 9217 1935 0
1348 5241 3817 0
-2631 8562 3831 0
6706 -3680 -848 0
-1703 9288 -6829 0
-4502 -3628 -1800 0
-257 -6519 3900 0
-7196 -9112 -7816 0
3236 -5541 5428 0
-3803 -7111 153 0
5066 -3344 -5312 0
-8207 -9341 5649 0
8809 -1505 5873 0
-7894 -7542 -7631 0
-4811 -9542 9374 0
3262 -7810 7137 0
4668 -1569 -2111 0
-9770 6265 -4781 0
-5101 -1085 4767 0
-838 9311 3784 0
8307 5007 -278 0
338 5068 9910 0
898 5644 7649 0
434 614 4101 0
1898 2066 4769 0
-4879 -4040 5396 0
-4716 -139 7265 0
-1522 -3154 9207 0
522 591 4446 0
-43 9945 6026 0
-1320 -3319 -7136 0
-688 -7034 7722 0
121 6529 4331 0
-1346 -5618 -3096 0
2394 2239 -2457 0
-6271 -6322 -286 0
1272 662 1753 0
-5293 -9969 8559 0
9571 2589 5560 0
9134 1943 -9679 0
-947 -1594 2449 0
856 6452 6312 0
-4478 3266 8332 0
6522 -8217 961 0
-1473 8875 6051 0
-7150 -3307 -4374 0
1689 -2241 -9939 0
6944 -2955 -100 0
-3681 -6180 -3619 0
9438 -6502 977 0
-5088 -1183 -4797 0
1351 -6809 -3049 0
-3402 2571 -7242 0
-5583 9062 7120 0
-5469 -9755 8605 0
-1024 -6908 4196 0
6544 -2782 3857 0
-6308 5996 -5265 0
-1722 -9812 9660 0
-6770 -4834 7904 0
-1704 8195 7967 0
-6148 7088 6069 0
-619 7145 9955 0
7239 -3015 -9535 0
-1212 -1700 9194 0
5559 5895 -8727 0
151 -8326 5814 0
820 -5418 -3913 0
6571 897 4685 0
1371 -2876 3597 0
-75 -7662 -7352 0
8949 3212 5187 0
-9419 -9124 681 0
3849 -4444 -8127 0
5363 -7154 -6017 0
-7701 7312 8339 0
-2769 -8577 -7227 0
-7613 2043 8224 0
-3712 -1618 4924 0
-8270 630 8586 0
-903 -4631 -6738 0
316 9953 -2522 0
2017 3240 7725 0
-1826 -9069 8670 0
-2542 7330 168 0
-4870 -6475 780 0
2064 7548 -5259 0
8255 -6177 -4048 0
3020 -5814 -5266 0
798 8183 -7774 0
-9656 -6636 8510 0
-2631 -5669 2332 0
1755 -4376 4800 0
3154 4382 1756 0
-9212 9183 -3156 0
97 4078 -5127 0
363 9876 3703 0
9123 -1132 2773 0
-6947 1793 -4920 0
-9854 -1422 -4814 0
-2569 6436 -2692 0
-8126 -7911 -1654 0
5709 -187 2166 0
-3089 6001 -3027 0
-992 -1916 4034 0
9694 3286 3544 0
-4619 8719 -2340 0
-10 -5119 8391 0
-992 -8493 -8946 0
-7174 3374 -356 0
-2546 5072 -7817 0
7911 5432 -4878 0
-1962 1850 -8946 0
5893 -7914 -9675 0
1751 3174 8773 0
3627 -206 8035 0
-653 -1975 -1207 0
-750 4501 8426 0
3650 -2582 -5604 0
-6758 761 -3530 0
6958 -456 6055 0
-7057 -7209 -9012 0
8991 -5433 5506 0
-3403 -1324 -1149 0
-4419 5211 -2632 0
-1277 -5608 7945 0
6757 -7943 -8475 0
-2264 -2484 -9541 0
3086 6945 8379 0
4137 -5761 3222 0
-306 -2095 -8900 0
-1239 2821 7472 0
-5880 9927 117 0
6052 4666 -1283 0
-2457 2180 2928 0
-3480 2422 305 0
9422 -4461 5708 0
-9590 6728 7341 0
6810 -8471 -1334 0
1478 -5837 5865 0
5774 530 3808 0
1041 -7171 1033 0
-7595 5294 -5913 0
8617 -9526 166 0
4927 -946 -7631 0
-5847 1872 -5419 0
8893 587 -6908 0
-8994 -98 -7714 0
-5427 9728 877 0
3433 -5510 9582 0
8146 8001 -3078 0
6989 2358 43 0
3553 -8521 727 0
-8211 6161 9077 0
-5774 -9916 7503 0
-7204 7939 4572 0
6649 -3169 2640 0
620 7698 7244 0
2787 3454 5843 0
-4001 6412 -6776 0
-5463 209 9316 0
8740 4949 -6135 0
2765 -4779 -6793 0
-536 -7421 1232 0
-4098 -6881 5920 0
535 5273 7015 0
-9468 -282 -4099 0
-2001 -4010 -3869 0
4759 9241 3723 0
-5880 -7980 4474 0
159 -7180 -2871 0
-6048 1077 -2895 0
6578 7305 3001 0
-4114 280 -9953 0
-542 8725 8991 0
-5726 8221 -758 0
7392 -8753 -2375 0
-2917 -7047 8544 0
-3170 3319 -9681 0
2156 -5092 9316 0
-2672 3858 -4677 0
9087 -2473 6273 0
-1682 846 3765 0
-1179 -403 -3329 0
1025 988 -1365 0
708 9117 -5538 0
-1465 -6456 8089 0
-399 5256 -9475 0
-6972 9082 -2069 0
3436 -1820 -5871 0
8980 5804 822 0
3209 -1770 8089 0
-9297 4874 5604 0
964 -4533 1781 0
-4068 -1209 -5218 0
-4285 2396 887 0
-773 -1822 -5969 0
5339 1743 101 0
-1973 9744 7170 0
-3176 -5059 -9600 0
-2769 -4017 7277 0
-6856 8427 6997 0
4286 -6292 -3961 0
1058 1808 3324 0
645 -3432 63 0
4342 -8183 -383 0
7814 996 -9191 0
-1055 9655 -8222 0
-1250 1918 7606 0
499 1440 5946 0
-2771 -3240 6907 0
-2946 -9788 2909 0
-4250 3302 -3120 0
-4085 -8852 -7378 0
-9189 -8444 -1437 0
999 -5713 7585 0
-5033 -5100 9900 0
9029 7758 -4407 0
-7305 33 1098 0
2100 8022 -5709 0
-8504 -5406 4067 0
-2436 -6327 -6084 0
-4372 1278 1125 0
-5696 4105 -5429 0
1834 7511 8997 0
-7008 5718 8352 0
-9614 -7330 -5072 0
6706 -2498 -7401 0
-5129 3214 9104 0
-3193 1709 -4070 0
-4881 3112 -4935 0
7632 -8468 -126 0
4581 1748 -8460 0
-2617 8688 -6305 0
2117 -147 3185 0
9456 -1411 -1466 0
-9405 3528 -3362 0
-1356 -2005 -2148 0
7667 -7129 -5353 0
-7929 972 7401 0
-2491 -4147 -1660 0
-4405 2134 7854 0
2043 1436 1422 0
-4958 -140 4255 0
6352 -8393 -1237 0
1866 9940 1089 0
73 -6027 -3497 0
-9486 881 -9178 0
3731 -3170 243 0
2236 -8328 6269 0
5942 7155 5675 0
5011 -4317 7744 0
-3112 6885 -9579 0
4579 -4376 -6166 0
4817 9538 3546 0
970 9415 -3016 0
7463 -8899 -5531 0
6076 -4175 -6758 0
-7069 -349 -6281 0
-4725 5152 5486 0
7510 2545 2349 0
3793 4347 2094 0
8691 1598 -9335 0
-5140 -7115 2490 0
-3115 6083 -5090 0
-5020 4141 1035 0
-1763 4009 -5403 0
5917 353 3612 0
223 9206 -5071 0
-9934 1406 -5414 0
-5490 -5498 -3157 0
3866 -4525 -4882 0
828 -6339 9257 0
-9971 4569 -9275 0
-204 -5252 -3574 0
7991 1397 -3231 0
-1794 1135 -2042 0
-9546 -7241 1701 0
5726 -1984 639 0
-9166 -3635 9540 0
-3387 6561 1277 0
158 -8550 -2518 0
-5561 -7329 4125 0
-7157 -1720 109 0
-9955 4556 -1448 0
-8978 -1628 940 0
8610 -8512 2149 0
1226 -2912 8340 0
8066 316 -1575 0
8042 -3693 -4264 0
1252 -7022 3560 0
-7925 6800 -1770 0
-9124 7093 851 0
-8964 -7829 -3471 0
-5224 2134 7780 0
-3654 -6668 6557 0
-1318 3919 2775 0
-4101 -5055 -6644 0
524 8863 1836 0
9212 -21 8214 0
7676 8289 8486 0
8989 5804 -5710 0
-7324 -3805 -4911 0
-703 -1454 -8953 0
-8462 7999 -1083 0
-2110 380 4820 0
1112 -9680 -9068 0
7982 -6947 7674 0
-4601 -3287 -8298 0
-8999 241 -5009 0
-1768 9453 5440 0
-1215 4873 4143 0
8162 1609 -9877 0
-3544 796 6655 0
-37 -6033 8709 0
7385 -7810 2074 0
-2342 -7621 7966 0
-3410 2840 -3436 0
5259 -9496 -7684 0
-1063 -4801 -9588 0
7469 437 2128 0
-3771 8392 -3249 0
-393 -7821 -9219 0
-7501 1406 -3608 0
-7002 8365 -3394 0
9053 -9670 4386 0
5989 -207 8653 0
-2059 7824 9810 0
-6002 -3075 5876 0
-9489 1563 -1671 0
-7758 -4887 -5086 0
-1670 475 7272 0
8551 -2182 9554 0
2733 -2507 3534 0
6007 -2053 -4736 0
-2545 -9300 4702 0
-3884 -1478 3406 0
-9202 -2946 5011 0
-8048 -7689 4806 0
1252 -4858 6245 0
-9010 -4843 5985 0
7098 9543 7975 0
906 1142 9452 0
5539 2517 -1457 0
-2087 6726 1837 0
2381 -2708 -9802 0
-2321 8948 -999 0
-5190 -8488 4608 0
3779 3670 -320 0
3171 -3212 1665 0
-3360 -6939 7203 0
-1001 1824 5094 0
3055 9835 4497 0
-2691 9150 -1715 0
5019 -8155 3105 0
9820 1175 -2498 0
8723 5827 3433 0
6268 -2417 -3574 0
-3339 -9886 3946 0
-1389 4707 -2323 0
-1103 6797 1656 0
6398 -4824 3110 0
-8203 -615 3982 0
6808 4608 -7303 0
-988 7568 8170 0
-6238 -526 -345 0
567 -9583 -8579 0
776 6745 7760 0
3582 4323 3558 0
-431 3852 4582 0
-2796 5418 3850 0
-3440 -3602 5193 0
-1510 -8640 2691 0
5563 8047 -4938 0
9048 9113 -1006 0
-9500 -1956 -4702 0
8571 851 -8127 0
1635 1310 8418 0
8768 5543 -6703 0
5515 -5815 -2013 0
-9602 7644 -3902 0
-2567 6534 -1507 0
-9006 -543 -3874 0
3072 1588 3502 0
-3742 -5202 146 0
-276 7718 7485 0
-3511 4402 3983 0
7221 1150 -1012 0
2666 -3957 -1301 0
5386 1544 -2490 0
-5069 5678 -576 0
838 9033 -2495 0
9756 901 -6731 0
-6953 -875 1280 0
2072 4504 -9474 0
-1874 6845 9346 0
-354 6101 -8492 0
-5359 -5226 -1560 0
-7334 -1302 -4058 0
7910 -6953 8484 0
5382 -6304 7614 0
2432 9502 9861 0
-9002 1765 -451 0
709 641 6243 0
-8408 -6143 2346 0
-8214 -759 -131 0
-3699 4099 5891 0
-1953 1128 -1869 0
-4267 3316 -5964 0
3721 8858 -6562 0
7172 -3440 9059 0
5373 9396 290 0
1104 9564 -9005 0
-7316 -1090 -8329 0
9481 -7002 3677 0
6414 -136 2891 0
-6471 -7811 1602 0
-9264 -2345 -1573 0
5017 1389 -2005 0
6310 7827 -8742 0
4630 5870 6687 0
-7937 -8902 -6209 0
-5828 409 7741 0
-5865 1972 4394 0
-1573 8331 7960 0
8452 -1444 -4004 0
8013 4087 -8590 0
-9748 27 4962 0
4935 7292 9474 0
-9397 -1697 -8540 0
-4491 8575 -1007 0
-8573 -1996 8979 0
32 -7511 -5839 0
2051 -6692 6305 0
-7550 -8984 4219 0
5685 9040 -4911 0
8007 -6276 4516 0
-4869 -6754 2015 0
6931 -8575 7712 0
-6937 8473 6884 0
7551 7213 2002 0
-3580 9527 -4535 0
5243 -8254 -6401 0
5859 -2480 4576 0
1436 -7637 3197 0
1144 6848 -2923 0
-3528 -1905 -7984 0
-5453 1538 -7646 0
-1870 5721 -1243 0
-2097 -3030 -9612 0
-9252 -9762 -2628 0
-7006 -4929 5398 0
6903 -7371 -9362 0
-8972 -970 -2205 0
879 -8468 -2075 0
2897 152 -7228 0
-3296 3520 -7635 0
773 1888 -8717 0
-3297 2438 -6787 0
5038 2315 3366 0
-9624 959 -644 0
8576 2817 5279 0
-3594 4449 -9521 0
-7755 -3342 4145 0
-4672 -8604 -3915 0
1122 -1037 6304 0
2229 -6286 8431 0
-795 -3623 -9684 0
2941 -1737 820 0
8896 -5415 -9961 0
-6875 7095 -4190 0
3653 -6384 2037 0
-5861 -3201 7619 0
9220 -8183 -4004 0
-9785 3985 -5773 0
226 9297 6801 0
-766 9347 2873 0
-2260 -8950 -1601 0
1590 3107 9912 0
-1099 -4999 -9118 0
-8861 -5624 2971 0
2358 6809 5079 0
-4720 7796 304 0
-2887 -1718 4222 0
1328 -7084 -3573 0
5169 2212 3031 0
459 3495 8443 0
8983 8116 9742 0
1239 -1088 4618 0
3021 -6224 -909 0
101 556 2160 0
3586 7224 -9171 0
-4547 4970 -4056 0
-7652 9739 -879 0
9651 -4374 2549 0
7882 9354 128 0
-509 -6814 4828 0
-8901 685 8891 0
-552 18 -1273 0
1344 -6526 2194 0
9064 9406 -7195 0
1640 5533 1886 0
-5654 -6320 -4445 0
-5794 8775 864 0
2769 1307 974 0
3822 4697 -3344 0
8928 1007 -6383 0
3502 -7837 3229 0
-781 -584 -9618 0
-7635 -9927 4053 0
-6141 -426 -1419 0
-5576 6514 -720 0
-7814 -7358 -9971 0
-9132 -8945 -8125 0
-4385 -7784 6127 0
10000 5497 7941 0
-7360 8600 7896 0
-7597 2784 -2726 0
8274 3671 -5471 0
3252 5994 4757 0
-756 9775 -2838 0
-5064 335 -5772 0
-8220 -4127 2425 0
-2488 -7514 -1133 0
-849 7683 6041 0
774 8663 -7476 0
545 3439 7164 0
-8114 825 5755 0
7962 -3964 -7208 0
4667 9390 -5916 0
-8459 -5679 7469 0
-7699 -2166 -2133 0
-9017 -4105 9511 0
-5763 -5202 -8110 0
1009 9249 -5430 0
8680 -1013 3065 0
-6507 -3878 -6265 0
8366 -5883 -1690 0
8857 481 -6693 0
-4635 4543 -5831 0
8018 -8437 -7231 0
720 -6715 -1098 0
-9743 39 -1737 0
1270 3454 2807 0
-7861 3460 -8440 0
5960 -2968 8967 0
2252 -6613 6990 0
-6843 -8302 4763 0
-9746 -6337 137 0
3335 -9743 -3386 0
5685 7530 -824 0
3988 -3585 7315 0
-1850 8725 -8511 0
6803 -7841 4863 0
-7075 6522 673 0
988 5060 -6893 0
-5352 -3968 -6069 0
-5354 -2624 9664 0
-8850 -3202 -518 0
-6221 -38 -6014 0
7401 -9169 -7418 0
-2932 8528 6496 0
5531 6806 -6441 0
3526 -1059 3280 0
5706 2404 283 0
-9279 4691 -8570 0
4244 7411 3316 0
6091 -3733 -4232 0
-119 5978 9753 0
-8789 -735 -7752 0
166 -4524 1767 0
-8696 -7449 186 0
-1995 -5063 3822 0
3914 6381 -5177 0
-6124 2090 4930 0
1949 -8308 1981 0
-3507 8738 4249 0
-2290 -663 -7447 0
8293 9765 8014 0
2662 4339 -5867 0
2921 -9479 -2760 0
-995 7411 -6104 0
-922 -1425 -8246 0
703 -1957 -3272 0
-1010 -234 6459 0
8402 -3209 4051 0
2717 4805 9573 0
-8460 -113 -4375 0
-9428 -2027 5055 0
-1386 2673 8488 0
-2157 -337 8699 0
7789 4926 -2529 0
-4810 8412 5308 0
-6389 -2443 -4355 0
-5424 -8187 -5163 0
-8042 -1348 -9924 0
-4754 5289 3472 0
9044 4352 5112 0
-6263 -3868 299 0
-853 -7462 -3246 0
1797 -4373 9036 0
5392 -4476 -8337 0
8315 5066 5678 0
1927 2283 -6328 0
9474 6509 3205 0
-2744 9949 2028 0
8712 -5552 -1915 0
2668 7557 -8732 0
-9784 3879 4162 0
-2760 -8826 -3959 0
3757 1938 2515 0
-4949 -8203 -6244 0
4745 -8539 3243 0
7164 -9940 8254 0
6213 -4898 1148 0
8968 -7861 3824 0
4039 -9167 4231 0
-535 -5607 8287 0
6090 524 -8548 0
8882 7075 8121 0
5526 878 3912 0
2962 -6918 -4773 0
-2944 2380 -1940 0
-2856 -3627 -1113 0
-8965 7859 1848 0
5289 1856 984 0
-9851 -6226 -5430 0
5574 3903 -9447 0
-6196 -4110 -1245 0
4754 -6989 710 0
4024 -719 -3102 0
-5728 -6696 -5663 0
6777 3710 -5431 0
-6216 -4173 2380 0
-1767 -229 8040 0
-6972 -623 -4695 0
-7992 -7862 -4049 0
-8224 -1957 -5883 0
9129 -9964 -49 0
1523 -6046 4215 0
-2082 -3506 -5814 0
-8015 -5381 -6190 0
-4622 1354 -1368 0
-6190 -6391 -2931 0
9021 -4822 -9265 0
8563 -7357 -4845 0
1087 4467 -4069 0
1986 -7188 543 0
-5679 7278 9853 0
6556 111 -7150 0
4898 6959 9882 0
8049 -7781 -5559 0
3503 803 -3820 0
5227 -9133 5634 0
-1609 2546 3573 0
-4698 9059 8607 0
-9408 -9129 -3318 0
5229 -8246 4779 0
5573 -921 2605 0
-8982 -3189 8472 0
-895 8558 8664 0
-5841 6934 -9408 0
7890 -540 6423 0
-9416 -6032 64 0
3341 -1514 7830 0
-6517 -3443 4372 0
3415 4713 3651 0
-1119 852 -2330 0
5190 6673 -7794 0
-5092 -7952 -6956 0
4824 2854 4173 0
2611 7149 -7806 0
9463 9163 5950 0
5509 9882 2118 0
-218 -670 4049 0
-1718 -4619 1094 0
3020 -7075 7719 0
3177 -8490 -8741 0
2711 -2673 -8020 0
-5761 -8975 5605 0
2216 -7455 7070 0
-6548 2468 -7003 0
1629 -4115 521 0
9447 8486 -3366 0
5695 5352 9856 0
248 -1553 4322 0
-2830 3884 1041 0
-2546 -4304 7658 0
3251 5560 -5155 0
-257 8523 2692 0
407 1790 -5565 0
-4549 -1992 404 0
-9639 -2706 -2897 0
-8737 -7954 -7181 0
-2684 -1140 -6627 0
9022 -473 6042 0
8269 60 -8994 0
493 -1729 -3976 0
4238 -9659 -1630 0
-5586 6592 6055 0
-4343 6646 9663 0
75 3044 -364 0
-3903 -3589 9960 0
6902 794 2774 0
1946 -2290 -7109 0
-7200 5261 2074 0
8844 9979 246 0
3311 3675 -6772 0
5443 8116 -5836 0
-9757 2949 -7584 0
3633 5765 4306 0
-3454 -9474 -4424 0
-9813 9191 9225 0
-367 3131 4613 0
5754 -5968 5732 0
4137 1629 -6070 0
7148 -6535 -3946 0
-574 174 -3820 0
-6164 3755 -6444 0
-2789 7442 -3031 0
-2550 4618 2619 0
1201 4433 476 0
-6694 6572 -7599 0
-9657 9152 8871 0
-4175 -6546 -5647 0
4306 2403 -30 0
-554 2368 2084 0
-9796 1886 -8886 0
2745 2529 -152 0
2604 1361 -6373 0
4393 -515 5795 0
-5040 -6494 -4 0
-8449 -2898 9669 0
-3324 -120 2004 0
1911 3720 3201 0
1762 9927 395 0
-5134 -4821 6727 0
1094 -7661 -8986 0
-5386 -5457 4434 0
9382 -6155 -8065 0
-4271 9066 -363 0
9833 3932 -7881 0
-682 3451 -3146 0
-8559 -313 1192 0
3559 7247 5716 0
1225 -5861 -9078 0
4965 160 -275 0
7814 -891 1723 0
-8018 7001 -144 0
7835 1818 -4353 0
-148 5076 -7208 0
-5002 5389 -353 0
5501 -1088 -1329 0
4089 -9333 157 0
8736 1591 2711 0
-7380 -3320 -2331 0
9192 1953 2363 0
4375 8178 2245 0
3384 3800 -8489 0
-3641 -2117 4997 0
2087 9716 267 0
9659 8618 3519 0
-4973 4228 7367 0
7772 -1722 2026 0
-4367 -9166 -6145 0
-9055 293 2597 0
-6295 1962 9388 0
-5680 1951 -5433 0
-6444 -7952 -3005 0
-4493 -894 14 0
1134 1318 8810 0
5485 6910 1306 0
9595 7671 -5339 0
-9145 -9535 9316 0
5198 -8750 -8286 0
253 3333 3031 0
7106 7989 9264 0
-7332 9962 9521 0
-3843 8261 -8708 0
7942 -569 5136 0
5362 -7120 -2751 0
4827 -4238 6914 0
-7442 -5761 7608 0
-2905 5522 6058 0
-1435 3528 -9236 0
7546 1278 -95 0
-1454 6575 -3744 0
-4493 -576 -6506 0
722 -7641 -3126 0
308 -5277 -8982 0
329 5727 -6043 0
-1849 -8228 -261 0
-5353 7843 -1588 0
-8179 -414 8502 0
-7241 -3044 -6592 0
7502 3197 -3927 0
-5987 -6025 -4257 0
-8937 -5268 -1327 0
3850 -8885 6618 0
9598 6766 6389 0
3140 7223 -9375 0
-5058 -4560 -7444 0
-947 -9411 648 0
-1122 -5198 -3077 0
2351 4531 -7378 0
1394 5629 8347 0
-9076 -486 4869 0
-1571 -1628 -5518 0
6062 8039 8440 0
-5754 -9571 5203 0
-5686 3854 -5137 0
2440 -7684 3337 0
-3424 -2877 -2141 0
3238 -696 -3400 0
5460 4169 7326 0
-90 -4356 -901 0
-8401 -9162 5096 0
5742 -3007 -9045 0
7870 -1902 -3056 0
9676 -1010 9135 0
-9972 6473 -1999 0
8851 9250 -9311 0
3758 -7040 -2866 0
-3129 6294 -90 0
4435 9363 9042 0
-3173 -2989 8271 0
8511 -3208 1508 0
-2253 -4470 -4085 0
2961 -2356 -9231 0
6014 -2273 -6444 0
8784 -1444 8630 0
2049 -9098 -8830 0
-4959 9507 -6558 0
-5407 -9065 -9537 0
-5215 1178 -8633 0
5680 1783 -4385 0
6834 517 9858 0
-4929 -1694 7747 0
-4134 4653 7475 0
1094 3830 950 0
8816 -5060 4711 0
6301 -498 5160 0
-516 1194 9035 0
717 1502 -1467 0
-6839 6841 3403 0
1448 6987 -7771 0
-3728 9220 -5069 0
-6471 -9331 -3947 0
-5869 5440 7127 0
-5506 4378 243 0
4542 6624 1460 0
7104 -5128 -195 0
-4174 -8580 -5388 0
9032 6047 4032 0
-1552 4044 6939 0
-7873 3820 5159 0
4025 6700 5873 0
-4077 -8538 -2580 0
8470 6136 4280 0
6891 -9719 -905 0
-6209 -6955 -127 0
-590 5197 5026 0
-2074 3276 -9212 0
-3410 8370 354 0
-8179 3528 -4153 0
-1608 -8594 2591 0
532 6415 578 0
-3508 -1278 -4286 0
-6151 -9817 -4900 0
1365 3820 -7351 0
-348 492 -8087 0
-4966 -447 -9299 0
-6868 -4052 1136 0
1660 2611 -5628 0
742 -9377 -1001 0
7150 -8986 5572 0
7199 -6321 -338 0
-970 -6251 -8470 0
-540 757 6906 0
5371 4945 2389 0
-2657 6077 -7382 0
-5231 1145 8965 0
3385 -5418 -2784 0
-4467 5168 9595 0
9659 -9531 5703 0
-3618 916 -4116 0
-2306 -7837 4896 0
-9278 -2363 -4303 0
2790 7697 -1167 0
3699 -2814 -9941 0
3160 -9092 1981 0
3948 90 3822 0
-2878 -5298 8986 0
3203 -4401 -262 0
2628 -6491 9712 0
-5327 6574 -1737 0
1389 -4658 -5008 0
2278 2644 7288 0
5585 -2143 9316 0
1771 5850 -5487 0
-5090 7240 -8693 0
-5269 -4115 7513 0
-1957 -3297 -6953 0
-1830 477 -7965 0
355 9709 -9229 0
-5578 -9808 8070 0
-534 -1229 -3620 0
-4383 2540 7678 0
4558 -2058 5739 0
-5758 -3409 235 0
6276 8679 -8577 0
-5324 4386 -7638 0
-4823 -9918 4187 0
-5777 -6637 150 0
-3434 -3056 -3894 0
-1608 8577 3740 0
9326 -145 914 0
-8962 6034 8031 0
-706 -1277 -7828 0
2089 -4379 -1607 0
-8822 886 -3055 0
3760 -619 153 0
-4090 -3937 -1041 0
3434 -9510 -3140 0
-8425 -8478 9559 0
4268 2581 -8510 0
7210 7470 -2737 0
-2374 -3264 -744 0
4971 9729 1697 0
-2781 9077 -8361 0
-1814 -6670 652 0
-1091 -6283 7003 0
-2675 -9175 6933 0
-8948 2818 3549 0
-959 1855 -9043 0
5293 -887 -2686 0
-3008 3413 -3841 0
-4546 4363 -2531 0
3125 8739 9248 0
626 8021 2741 0
-9821 6848 4379 0
8677 -8134 2123 0
-3936 1852 -3443 0
4055 -4472 4084 0
5898 1071 -8713 0
-1420 8101 8613 0
-630 3008 -2450 0
-3379 -8142 -4311 0
-3131 -7883 -5174 0
9383 6803 5590 0
-8206 6532 8286 0
-6586 -7084 -9167 0
7811 9219 3499 0
1012 9989 -6784 0
9905 6716 -8738 0
3822 -7413 -2329 0
3211 4759 -8791 0
2335 -90 3467 0
-3034 1414 -5474 0
3074 -1386 5993 0
-8876 8209 5376 0
9576 -2151 -6217 0
5363 5199 -4224 0
7006 -7920 9291 0
6502 -798 2727 0
-6176 9424 8941 0
1331 -3628 -9697 0
4583 -6511 -4749 0
-8893 -7902 -5424 0
-4064 8813 -8313 0
-3217 -2318 -7521 0
-4377 -1692 4463 0
9 8251 -4914 0
-1956 7870 -8521 0
-8415 3726 -9270 0
3719 887 6093 0
8249 -4842 -7464 0
600 -7978 9705 0
4154 -849 -4486 0
-2728 3694 4823 0
-1527 8251 8048 0
3674 -5474 8616 0
-1344 7834 -2597 0
2350 -2584 3596 0
-5365 8007 8450 0
901 6268 -5060 0
-9482 -4929 3052 0
7608 -5715 -7381 0
-9035 -5019 -3887 0
9243 4985 -6351 0
-9753 2264 -8587 0
1896 -8800 -89 0
8939 7453 -1378 0
-2834 -4946 -1306 0
4033 7569 -2527 0
-3462 -3890 9430 0
7023 9699 74 0
-704 9203 3017 0
-1649 532 -4172 0
5327 6831 5832 0
6136 -2639 2121 0
-3308 632 7560 0
-9711 -5999 -2826 0
2576 72 260 0
-3457 6353 -4816 0
-6396 4741 418 0
3349 8508 5697 0
-6799 2637 6032 0
6254 -4632 -698 0
-5665 6631 2268 0
-231 -108 4736 0
7677 -3881 -8496 0
-5493 -2174 -4796 0
-1666 1056 -3830 0
798 3202 5633 0
5353 2679 9474 0
4525 135 -8453 0
3048 1881 -6211 0
-8925 9393 9778 0
-1866 -6452 1161 0
-240 5569 7454 0
-9904 -8635 -9753 0
2666 7270 -1311 0
2816 -5409 2996 0
690 5957 -9254 0
-8586 7153 6866 0
-309 -561 -9986 0
8126 6927 -1925 0
-7403 -2766 4928 0
-6673 -968 8655 0
-8751 973 8887 0
-6630 -8705 4560 0
3425 7687 4240 0
2971 -249 1678 0
7488 -5201 9587 0
9783 -628 -5872 0
-5964 -5577 3246 0
7892 -9220 -6462 0
-7189 9832 8303 0
6517 -4017 -3495 0
-2166 -4774 -3426 0
6884 -1792 4631 0
-8153 1255 3222 0
3766 -7576 8205 0
3241 8798 5501 0
5520 1876 -9841 0
1946 5462 3321 0
-6019 -3019 8306 0
-7429 6874 4066 0
-9762 -1167 1938 0
615 -7256 -4990 0
9010 7251 4353 0
5817 -8502 8688 0
-8028 -4756 -6994 0
2751 -8635 -1403 0
4848 1944 858 0
8788 -4670 -6164 0
5182 3655 2981 0
-5028 -3790 2091 0
-1401 1780 -5311 0
9910 -1852 18 0
-5674 5894 -6755 0
-2939 -5748 -6267 0
4088 -9358 -7396 0
8116 2737 1368 0
1149 9913 -4477 0
4263 -4343 -8265 0
-6666 -2001 -2665 0
-249 -5581 1596 0
-981 -2864 -7433 0
-670 -8220 6992 0
3835 3619 -8215 0
-5092 1548 9833 0
6657 1433 820 0
5159 -5591 -1183 0
-6719 2849 -1702 0
8422 -9191 -4821 0
1312 4330 6992 0
1850 -9877 7735 0
-972 -4295 1998 0
-47 -306 2041 0
-4961 7876 -4703 0
-5646 -4903 -8561 0
8767 4365 695 0
1102 3995 1900 0
-6541 -8159 8452 0
-239 4614 3462 0
-1983 -4542 1858 0
-5805 9179 115 0
-3193 7475 -3326 0
6874 -914 -4070 0
9462 -2056 8065 0
6075 -7295 -742 0
-5184 8820 7397 0
-2623 -4154 -5850 0
2253 1696 -1199 0
-9787 6230 1099 0
1071 5040 -6841 0
-6927 7375 -9988 0
-9849 -865 -8969 0
-5151 -7208 6902 0
1110 6561 -3318 0
-6671 -953 8744 0
-6183 -3063 -6692 0
7478 -260 -3434 0
3330 3690 4728 0
-9713 -9591 -5207 0
-2700 -7970 -4574 0
2698 -9360 2290 0
5565 2127 7600 0
3596 -5973 34 0
-4345 -5675 2253 0
-6798 -598 5769 0
8537 3037 -1576 0
816 -772 -9791 0
7336 2414 2270 0
4932 2410 2512 0
1534 4865 2846 0
-9225 8445 -9826 0
7579 -8025 -1046 0
-9393 -5487 5771 0
3015 1117 5513 0
3725 8220 8754 0
2929 8661 -198 0
-2424 8275 -2740 0
-3387 5361 -3587 0
2382 1001 4093 0
9773 -6560 -7094 0
3286 1821 -5427 0
8004 6881 -3154 0
-9065 -9417 7850 0
1784 2468 -8721 0
9391 4161 -1766 0
2166 2198 -9455 0
-6862 1770 9960 0
4908 -6375 -3786 0
-689 2665 5452 0
-6879 -7711 -3964 0
-2358 -5104 -5168 0
-7255 -3013 7317 0
6045 -6709 -1247 0
-8196 4692 -9197 0
-4417 -5573 -4869 0
3248 -8108 -3753 0
2436 -4730 -5068 0
8023 -5022 3195 0
4897 -7294 6157 0
4446 4063 -6505 0
-1975 2551 1892 0
-1221 3370 -7261 0
-6190 406 7320 0
2379 8678 3929 0
-3088 -1523 3589 0
689 -5734 9069 0
-7303 4510 3713 0
3747 -8416 8020 0
1444 492 -7266 0
2869 -4236 1856 0
-5688 -5468 6178 0
-7824 -3991 -8207 0
7240 3101 1421 0
1600 8307 -172 0
8501 -2179 8929 0
-9928 9823 -3268 0
959 9699 -6887 0
4739 6682 -1168 0
5642 9793 1481 0
-4730 6712 -764 0
6386 -106 7579 0
-7563 7399 -2058 0
9972 -7014 5903 0
9797 8759 8309 0
-9452 7353 7638 0
7495 9872 -9355 0
-8869 -2173 5973 0
-9637 -1850 -8465 0
8642 2162 9719 0
8610 692 -4048 0
-8893 2546 9301 0
-119 -904 -8979 0
-5003 6561 -229 0
-3889 -1347 6521 0
-1811 9091 -8846 0
-4236 2322 9540 0
-9668 4244 -2084 0
3081 -34 8899 0
1348 -5008 -508 0
672 7626 2610 0
5734 -5107 -6671 0
-952 -1278 8653 0
4661 -7682 -3430 0
446 -614 -7773 0
-1663 -3 -8619 0
6609 6378 -8186 0
8459 -4493 -8180 0
-923 -5537 9743 0
6377 -7229 -1473 0
3523 2979 1750 0
-5884 529 -1755 0
8704 -9277 5934 0
7124 -5954 -7826 0
-7505 -1023 -8973 0
1173 -3409 -5516 0
2386 -290 -2260 0
524 9685 -1968 0
9495 8600 -8583 0
-3534 512 -7988 0
-8355 5125 -3603 0
6061 -5060 -4921 0
4670 -632 190 0
-367 -4540 2035 0
-7277 -3795 355 0
805 7598 4070 0
-2344 3639 2216 0
-2210 7714 -3842 0
-9849 3563 4236 0
3471 -7360 -3212 0
-4095 9329 -9968 0
-6968 2143 -1969 0
3910 -7576 -3430 0
-4940 8669 -1818 0
-227 -7538 5653 0
4295 3756 6404 0
2102 -7210 -3988 0
-4370 -1547 4230 0
493 3663 3257 0
-8539 -4418 2536 0
8211 7767 17 0
-6702 -3605 7269 0
-1075 -3507 1052 0
9203 -1094 215 0
-5785 -2136 -8918 0
-5240 5133 -6952 0
-3120 6495 9156 0
-4404 7958 879 0
-6038 -4444 8388 0
8135 -7124 2515 0
5087 -4479 -2553 0
-8229 2776 2799 0
3084 -1248 -8075 0
-1383 -9517 -4866 0
7663 6501 -383 0
-7118 6339 1930 0
-376 -4890 -4582 0
-3513 -7938 -4239 0
9687 -3998 -2652 0
4882 -240 9047 0
-5257 7764 -2001 0
44 -1006 9894 0
-2092 5357 -7680 0
-244 -3906 -5230 0
3548 6394 -8576 0
-6518 -6952 3941 0
7311 1759 2066 0
5315 -194 -7280 0
6510 -2064 5208 0
-2283 -231 1609 0
-408 6232 -1470 0
8242 -4985 -2082 0
-9442 8455 6229 0
5146 8358 -5777 0
800 -9296 -3212 0
4902 9290 -6058 0
-5527 -833 595 0
56 2913 4545 0
-7474 7282 4418 0
-1951 2511 -6743 0
7339 2638 6106 0
-4946 -1843 6088 0
3720 -128 6512 0
2415 8336 8468 0
7114 8998 8891 0
-1508 -999 5768 0
3353 1895 721 0
-8363 -3302 7557 0
-9790 2908 7122 0
-1480 9075 -9065 0
846 -1176 -7529 0
9519 4670 8070 0
-3574 -7116 -8740 0
-9054 -3470 6695 0
8681 6379 -7227 0
690 -4043 8297 0
-2764 2726 3389 0
512 4626 -3067 0
1478 8178 2732 0
-7639 -9957 -3838 0
4070 1905 -5902 0
4252 9923 4193 0
-5387 -6986 -3279 0
-3293 1190 -5660 0
-1005 7875 -9751 0
-7846 -3224 5049 0
-1830 964 8217 0
-436 4990 -2698 0
-288 4 -4076 0
782 -8820 3042 0
-6727 -7964 6367 0
-5233 839 5974 0
-5895 6846 -2885 0
3118 8243 -3164 0
-8210 -8248 9593 0
-9470 1661 7012 0
-7031 1289 542 0
-5021 292 9237 0
-3981 3267 -1430 0
73 -6372 6210 0
1911 -5121 -5894 0
1701 -7056 2810 0
6006 -7142 -8411 0
-1613 -5763 1895 0
-912 987 -2883 0
386 -8159 -5983 0
-6452 -2941 -6782 0
-2060 5723 7552 0
-3401 -3822 1567 0
2003 -3739 2879 0
-3417 7534 7452 0
5428 6267 -405 0
-6615 -723 423 0
-6896 6717 -1281 0
-9427 -4498 629 0
5997 7774 760 0
-5257 4636 3593 0
7066 -1422 -9687 0
-5180 9461 3869 0
1937 -4615 328 0
4975 5507 766 0
-5440 6008 -4850 0
4054 -6756 -690 0
5424 -5773 6233 0
-131 8443 6330 0
-557 6400 6735 0
4223 -9696 8734 0
-4520 8985 -7526 0
6953 -2137 -4187 0
-4255 -7871 7615 0
3981 4107 5465 0
7581 3389 4189 0
-6930 -3329 4317 0
-7136 5648 3982 0
3459 887 7532 0
-6629 -4357 7409 0
931 7750 -7188 0
7747 5986 -1249 0
-8373 7684 4264 0
1658 9190 -3548 0
1205 -4116 -4606 0
1657 -8545 7224 0
-7799 -3090 7751 0
8162 -9063 9075 0
-2965 -6192 8810 0
-8560 -4578 -6247 0
9307 -1331 8548 0
-2157 -7400 -4449 0
9998 -1819 -4447 0
8831 6509 -6593 0
-1259 6429 -8933 0
4214 -6214 -291 0
-7175 2100 3985 0
6839 3450 7195 0
1770 9797 -3291 0
-7318 -7956 -4228 0
9562 8956 -7710 0
530 8514 6745 0
-3615 -7765 5530 0
7666 7037 -8658 0
6330 -3508 638 0
-676 1593 4310 0
-4262 -3742 -2722 0
1741 483 630 0
2210 8999 -3203 0
2205 1315 -6389 0
-5286 -2032 4648 0
-5506 -4845 3867 0
-7977 700 -5422 0
5470 -6619 2547 0
-1857 2763 -5264 0
9617 9140 -1866 0
1419 7448 -158 0
2949 -7578 -4167 0
1475 -8392 -9758 0
-1117 617 -7309 0
-8350 -5549 1798 0
-855 -5724 -8237 0
3586 -3851 946 0
3009 845 9603 0
-4486 -4310 -7487 0
5047 4242 8433 0
3733 -866 -6181 0
-4528 696 1315 0
-589 -5542 -9366 0
-8777 615 -8588 0
-5317 -3941 7305 0
9450 -858 -6406 0
-6801 9564 -7688 0
2177 7636 -2472 0
-6539 -3096 -646 0
-4019 2739 -6596 0
-6543 497 -2553 0
-81 9999 -5440 0
-2839 2475 7801 0
-8216 6111 9222 0
-8193 5016 5247 0
8103 -1141 -7478 0
-573 -4980 -4472 0
7626 -164 8848 0
4770 -8432 -1535 0
4807 1539 -3291 0
4865 -9551 -8718 0
-8056 9425 -9305 0
4587 -443 9018 0
3012 -2412 -2715 0
-2025 -8533 438 0
-7936 -1026 -3985 0
8568 9245 1833 0
7616 -7796 -5887 0
9135 -8415 6677 0
-1337 6552 -8541 0
-7287 -8731 -4145 0
-7637 -8004 -5590 0
3014 -3195 4884 0
625 4511 2824 0
-14 8609 -8188 0
4243 2295 -4863 0
299 9029 -4178 0
1533 -8923 4790 0
2812 7262 3723 0
3595 1098 -6009 0
3784 -855 3025 0
851 -963 6711 0
-7484 -4663 5513 0
-1343 6118 -7235 0
1446 521 1110 0
9691 -7552 -9749 0
-2903 -9268 -2507 0
-2515 -4811 -5515 0
3411 -468 3012 0
8082 -2942 4615 0
-9577 1033 -1641 0
1381 1284 6419 0
-3272 7595 320 0
8668 -5614 7661 0
-3156 4483 -2026 0
-1226 3114 9129 0
8358 882 -9009 0
-8745 2631 -6922 0
1684 -2049 -8815 0
7588 -3871 7433 0
-363 2526 -5631 0
7040 1076 7721 0
764 -7345 7156 0
9847 8365 -8949 0
3106 -4334 -5708 0
6806 5913 8441 0
3651 8760 -9765 0
4073 -8053 -4942 0
7527 -6653 3991 0
5022 5293 1305 0
4508 15 9589 0
5310 -9953 -9335 0
-1384 -9462 -8741 0
1014 5968 93 0
-8070 -1986 -8707 0
-4613 605 8135 0
5665 -8035 5221 0
6540 1415 93 0
-3506 6347 5153 0
7292 3333 2855 0
-8084 -1523 -8036 0
-3674 2908 9405 0
-2566 5729 -9793 0
2967 2950 -6515 0
1461 1525 4903 0
-80 -6803 -1874 0
2546 -5999 952 0
-4487 9732 -1820 0
-8648 2257 989 0
8607 -1400 -4821 0
-7391 8863 -7037 0
9601 3712 7103 0
-7465 2679 -1445 0
-3452 -7149 -6655 0
1629 -8731 3088 0
2852 1471 -3253 0
9866 -6140 7389 0
-1319 4149 -2242 0
-7249 6972 9748 0
1698 -7485 -1799 0
-1277 5173 -1190 0
-1739 1061 3087 0
-7187 -5122 8454 0
-4294 212 -8386 0
-5370 -1902 -5778 0
4682 3223 8637 0
4954 -2007 579 0
-5210 -1109 6222 0
-8613 5277 -1569 0
7068 -725 5729 0
6691 9100 -962 0
9073 -5052 -9748 0
-821 4435 4878 0
6490 1761 3081 0
-600 -6771 -2307 0
-9603 -6600 5232 0
-7307 4580 7890 0
-2872 -4116 7174 0
-1045 -5289 -3829 0
7941 9860 -2933 0
-4028 3697 7966 0
5672 -2007 1440 0
-6024 -7800 -7026 0
-7289 -3932 -6008 0
-1719 -1105 9025 0
-4070 -9632 -2384 0
-1712 1953 2110 0
819 5223 -8576 0
3422 -2210 2487 0
1262 -1883 -9364 0
2869 -3917 -7408 0
6008 -6590 6290 0
-1840 3193 -4314 0
496 9688 9783 0
4380 -5579 -1045 0
3609 3076 7134 0
5973 -5312 8362 0
-6177 4196 8974 0
1967 -6803 8913 0
-3081 5604 8963 0
5960 59 5398 0
7534 -9212 8975 0
-9386 7261 -944 0
-5377 -9144 -5849 0
-9848 -7748 -570 0
346 8384 -7048 0
2524 9742 -2034 0
3681 -5690 3252 0
-5888 -891 -7026 0
-366 -2072 -5379 0
-8315 7597 9016 0
7116 1764 179 0
136 -865 -7884 0
7348 -5330 -4625 0
9338 -1482 -2131 0
7247 -3665 9070 0
-5521 -4727 -9916 0
-1738 1833 9221 0
-655 818 -728 0
7937 2764 4802 0
-3393 7238 -7691 0
8913 1423 -40 0
8343 -8827 9100 0
3045 -4948 -5117 0
-1110 -4257 1524 0
7660 8568 -3931 0
1053 8108 -6561 0
-7323 -7474 -6091 0
-118 9124 3251 0
1640 7810 -491 0
-277 -4916 8120 0
2978 9783 1401 0
7106 2210 -5644 0
-298 2143 -7156 0
4720 -1966 7103 0
-7905 -1232 -3931 0
9380 -3576 9543 0
-2454 -206 7107 0
1422 9885 -942 0
6901 -9326 8555 0
5236 -9009 6124 0
6224 -6929 4889 0
5662 -4212 -9835 0
8599 -664 3257 0
4430 3635 5802 0
-6618 2419 -224 0
-3940 7806 -4143 0
-4708 7058 6444 0
8665 -960 -9050 0
-4842 -4104 -8574 0
-2634 6735 -1642 0
-5265 -3578 -3386 0
3202 1723 -650 0
-1466 9011 -6263 0
-5934 482 5795 0
8749 7392 3710 0
9308 58 -3830 0
4046 -4517 2211 0
-4124 6554 1508 0
5435 -509 323 0
7147 -8562 -3462 0
2358 8248 -610 0
4480 -9354 -4195 0
1375 8040 -6867 0
6184 6681 8321 0
2626 4306 923 0
7440 7949 -124 0
-9629 5293 -6056 0
3945 529 -6502 0
4458 -6952 -1491 0
-4181 2400 1690 0
8640 -5552 5939 0
-3736 1672 -5346 0
6726 733 -6679 0
3889 4566 -8226 0
-5142 9797 -9162 0
-9632 9890 4787 0
2094 731 -4893 0
-4531 8007 -4040 0
3754 -1131 -9236 0
-3677 -8415 1874 0
8285 711 8881 0
7239 -580 1566 0
-5730 1332 -6935 0
3203 6504 -1617 0
-4766 4117 -9526 0
-9906 -4781 6288 0
-3072 8463 -5141 0
-4606 -1567 -1573 0
4078 -5280 5061 0
-8001 -1716 -994 0
5610 -967 1478 0
4053 4432 -6354 0
4983 6682 1498 0
3921 7312 -8293 0
3475 -2659 -5107 0
6470 -9623 8057 0
1770 2666 9591 0
4645 -9700 -3228 0
985 -6680 7334 0
-5783 -2061 -5276 0
760 -1697 -7075 0
-2322 4371 -6243 0
-1155 6332 -8478 0
-7910 9703 -5295 0
1185 -5934 -3919 0
274 8225 6429 0
7660 819 -292 0
6550 -4209 784 0
-3164 -2287 -7887 0
-2993 -6471 5083 0
-1837 -9318 -7207 0
7789 -3700 9748 0
-783 -9017 4399 0
-4235 -8167 374 0
-2710 4561 763 0
2063 1930 8587 0
9460 5905 7805 0
9516 -3890 3460 0
-6216 5514 -6566 0
-425 -4362 -1296 0
7164 1654 3938 0
4189 -1649 -959 0
-8185 -6740 6649 0
-7246 -4337 -9161 0
-7552 -2522 7674 0
5134 -4652 -8492 0
-8850 -3171 8505 0
-4698 1874 -8866 0
1730 -7270 152 0
1024 -8390 8588 0
9429 6403 8060 0
2939 -8144 2792 0
8320 7106 -3269 0
-9065 -1801 -2460 0
-2062 -5281 -7949 0
-7928 -9525 -620 0
9743 -9438 -7082 0
486 -9017 -6543 0
-182 -6508 9346 0
2837 -9539 4932 0
3920 -3225 -3588 0
1985 2378 -7693 0
7610 -1085 -9797 0
3205 9739 4146 0
3482 1146 -1540 0
-9118 -6112 6704 0
-4582 -1021 1434 0
-4863 -5741 5077 0
4414 -5414 9845 0
6452 8347 6219 0
-8276 -3029 -3754 0
-5479 5717 7987 0
7443 7048 -1792 0
-2176 8680 -1547 0
-8583 7906 -9587 0
2220 -510 -6381 0
5751 6307 -2791 0
-2255 5394 -9996 0
-9161 -7579 2168 0
7174 -1309 8535 0
6906 -1086 2474 0
-7845 185 -9679 0
2943 -1667 -8859 0
1110 -8280 3475 0
5613 -9250 8728 0
-2266 -4246 -9750 0
1765 8932 -5804 0
-5613 -7912 2808 0
6184 2973 514 0
6821 4067 -2976 0
-6477 3955 7127 0
-9678 3519 9597 0
-374 73 6535 0
7217 1378 6097 0
1073 5087 -9087 0
-2751 8898 4450 0
8511 -3261 5493 0
-1559 2617 -7948 0
6882 7492 676 0
372 -8891 -7218 0
-6359 -7757 -2619 0
-5091 849 -2653 0
-7593 8015 2445 0
2726 8184 813 0
-8431 -8144 7171 0
-3836 5618 -6050 0
4435 2911 3522 0
-972 6085 -4781 0
-5299 -2350 -9757 0
6465 5624 -388 0
3710 -9403 9278 0
9115 -6120 8359 0
4979 6527 6868 0
-809 -7547 4139 0
1774 8285 -2380 0
-3499 -4490 -9088 0
1120 7547 -6233 0
-318 -4750 3676 0
-8154 -8678 3724 0
8956 4117 -6352 0
3062 3025 -1400 0
647 3386 -6558 0
-5231 8061 3467 0
1627 -8695 -6752 0
411 -4685 1259 0
-5731 -3227 -8262 0
5478 -7049 -2201 0
2755 5066 -3888 0
1761 -7501 -5584 0
-2531 9017 8085 0
-1231 1170 6068 0
-9847 7325 -5085 0
-7158 -5722 -6566 0
4732 -6552 2048 0
-7139 -5509 1513 0
4283 -298 5107 0
-4078 -2431 -9966 0
-5297 754 -745 0
-6406 4740 -9106 0
8122 291 990 0
-9538 -3929 -8832 0
2560 762 -255 0
7779 2221 -5491 0
1939 -8714 -9647 0
1248 4292 2211 0
-3776 6248 -6406 0
-717 2737 5735 0
645 -9266 -4132 0
9027 7655 -8283 0
-205 -4605 -8996 0
9017 -847 2772 0
-6001 -4671 -5977 0
-6247 323 8765 0
3823 4554 2344 0
2658 -3550 -9976 0
-4697 4335 -7063 0
-3763 6483 2508 0
-7461 -1997 -5416 0
-7441 -8030 -1890 0
1055 5281 -5323 0
7026 9688 -8052 0
9148 345 9112 0
-643 -8121 8768 0
1942 750 6996 0
-2718 7607 427 0
3691 4848 8954 0
-536 -4758 -6304 0
-8065 2736 -629 0
6358 208 6347 0
-8899 7555 2382 0
-2450 -5215 3653 0
6652 2894 -3886 0
6100 -6928 8510 0
-6725 -2950 -2779 0
8157 7113 -5388 0
-5407 -9374 -3937 0
-3331 -3280 -6426 0
-7921 -1895 -5029 0
-4010 -6533 4815 0
-8195 9170 -1937 0
5769 3658 6037 0
5417 -5476 -8391 0
-5507 2641 6950 0
5899 -1946 1633 0
-1928 3307 1457 0
-2781 8628 -9527 0
-9900 9998 7489 0
-2236 -6586 9456 0
3456 9689 8103 0
3654 -3234 -4683 0
-6129 6969 3696 0
-36 6586 927 0
-4067 -3248 3216 0
-3008 1509 -6146 0
3111 8130 -1406 0
-7153 2571 7247 0
-7122 -2895 8598 0
8054 1767 -5927 0
-6258 9575 6898 0
5695 -279 -3516 0
-1851 -3511 4735 0
2456 9514 -2955 0
-9919 -2744 959 0
9347 -9466 -1185 0
9173 6369 -4099 0
-9056 -7795 -4088 0
-5839 5187 4235 0
2323 -1348 -7667 0
4347 4551 3923 0
8218 -4939 9641 0
6910 9775 -3480 0
-2184 -3594 5565 0
-2512 -6043 -3982 0
5805 -3956 -342 0
-762 -2596 -8544 0
-3823 -4537 79 0
-6992 2828 -3046 0
9397 -6727 -3768 0
9766 -4234 -2157 0
-8724 -9574 6584 0
-9963 -5051 523 0
-2373 -5129 -535 0
-6144 2054 -2957 0
-4874 4100 6273 0
-4154 -1158 -1902 0
1010 -8467 -1833 0
-484 8202 -2139 0
-3845 7020 -4944 0
-4682 4143 -1950 0
-3324 -9628 -36 0
1213 -3877 -9937 0
722 -3926 240 0
-5296 5749 4224 0
1201 8696 -6190 0
3006 -4258 -927 0
-3354 8349 7330 0
5947 -7672 -2902 0
3062 3723 -5952 0
-7526 -2958 -3131 0
-5118 2927 4679 0
-1663 -5756 2596 0
-9824 -9239 1492 0
8551 -9102 -9700 0
1641 4000 2757 0
-1668 -523 3724 0
8116 6622 -90 0
9443 -9908 4493 0
6770 -493 -4485 0
-9618 5138 5757 0
5303 -3024 5726 0
1649 -7649 -3094 0
2101 5770 -8964 0
5117 -7293 -5946 0
-9114 5330 -2678 0
-4152 720 8617 0
-6170 8831 -1060 0
8508 -530 6322 0
3913 5376 -1921 0
2741 6937 4374 0
-7923 -9722 -738 0
8310 9876 9464 0
5444 7423 3797 0
2204 -5707 3074 0
-5156 2361 3042 0
2045 9687 -6319 0
3751 -4878 5484 0
7961 -3401 211 0
151 9414 5413 0
9648 8562 -8537 0
-6061 6228 1546 0
3132 -1335 6756 0
6779 -9034 -7103 0
-7940 -793 1530 0
6035 -7820 -6126 0
2181 -2069 7930 0
-4359 7060 8110 0
-8802 -1123 -1763 0
5575 -6339 2666 0
1030 -682 -4264 0
-7014 -1631 -9057 0
-1222 2124 -7703 0
-6309 8330 1781 0
-9279 -221 61 0
3353 906 -6617 0
6510 5372 -6103 0
-9222 -5520 -6548 0
-3841 -2338 8312 0
-7479 -7262 7626 0
-7527 -1007 -9791 0
-6628 -3952 5836 0
-2275 4035 -9950 0
5468 1563 -9687 0
9167 -7948 2303 0
7606 8315 -8523 0
-9178 2722 174 0
3438 -4628 -275 0
6632 -6703 983 0
-9071 2176 4155 0
4239 8899 4642 0
5664 994 -763 0
4206 -1461 -134 0
2003 8587 8006 0
8958 2742 8615 0
-4100 2282 -9894 0
9728 109 3289 0
6243 1033 -213 0
3165 3531 -75 0
-2801 -7176 -2843 0
451 -1159 -6193 0
-144 -5542 -9836 0
7840 -6562 -6590 0
5096 1593 -4198 0
6022 -3627 4977 0
-7925 4194 -8528 0
-3028 9311 4626 0
-5055 5060 7167 0
-4393 -7711 5956 0
-7122 6729 5283 0
4432 3828 6764 0
5408 2569 -7014 0
-1895 795 6730 0
8743 -6033 -7128 0
-2492 -2158 2181 0
-3584 7654 2144 0
3078 -8742 8748 0
7531 -415 -4949 0
-7416 -3113 -3581 0
-8821 2343 1242 0
8541 8957 -7004 0
-8263 2644 -1439 0
-9370 -5504 -4211 0
-9327 4439 -7141 0
2298 -1270 -4188 0
6704 2059 9273 0
-85 3560 -1230 0
-6549 -5297 -4162 0
9959 -1039 -9296 0
2759 -8962 -3922 0
2642 3764 -5087 0
-6777 7681 -9102 0
2027 -5083 7682 0
7989 -9510 8971 0
-5840 1776 4694 0
1328 905 7308 0
1367 8305 -4161 0
1183 6461 -3905 0
-2870 4344 -1152 0
1103 -5540 9492 0
6448 -8396 4213 0
-5453 9471 -1389 0
5481 -1582 8545 0
11 -2396 -328 0
-275 8306 -2225 0
-1813 7819 943 0
-9639 -1425 -2962 0
6662 8718 5437 0
-9266 8496 2384 0
6337 -8667 -9545 0
-7039 1547 -5828 0
4585 626 -5087 0
-8989 9741 -3776 0
9079 340 9054 0
-7598 -5906 -653 0
-131 6453 7566 0
2951 3220 3295 0
6315 -9805 780 0
-9924 8101 -5687 0
-4652 7754 -6782 0
8398 -9290 -925 0
346 5075 702 0
5496 3881 4899 0
-2169 -4964 -1685 0
3087 1119 -290 0
-2096 627 -4983 0
3150 -5881 -9999 0
-1641 -9994 2783 0
-1942 2041 -5539 0
1479 -7871 -3805 0
-6453 1363 -4672 0
7309 964 6437 0
-6523 6618 8486 0
6138 2398 -454 0
-5968 8116 3888 0
-2434 -2437 6989 0
4462 2398 3929 0
-5156 3317 2700 0
9252 926 1813 0
-5447 1244 -8617 0
-3614 -6254 -4110 0
4845 7825 3510 0
9576 -5155 -6189 0
6209 -8803 -6214 0
2861 4678 9179 0
-5350 -2657 8700 0
3790 6754 3746 0
-2115 -9615 -5015 0
-3658 2201 -6603 0
4293 6656 -3817 0
-1528 -2102 -964 0
3541 9673 -355 0
3407 2777 -6860 0
2637 1659 -9511 0
-62 8551 -8069 0
-4919 -4319 5754 0
-5994 -4809 -3415 0
9764 9262 -1131 0
-1469 4406 2975 0
-7909 472 2898 0
-8214 -5944 -652 0
-3986 106 -2894 0
148 2861 4768 0
8293 7526 3850 0
9418 -2989 6188 0
-7457 7441 -2758 0
2149 -3974 3052 0
7491 5133 814 0
-1856 8203 -7727 0
-9647 -5368 -639 0
6846 8540 4477 0
-7686 9858 8845 0
-41 3365 3625 0
-9769 -7335 5905 0
-2625 4286 9797 0
3755 -4832 -5120 0
9581 -3552 5546 0
-8810 9198 -2068 0
-7026 -5602 -1634 0
-5607 -673 -3201 0
-2687 -2921 6552 0
8078 6433 -9334 0
1251 8484 9510 0
5768 -5438 6637 0
-8850 -4402 -2367 0
-8681 5255 3029 0
3228 -7613 6305 0
8712 1599 987 0
-7161 -7803 -2454 0
5036 7855 9250 0
-1669 -2583 -4822 0
1993 -2420 -6139 0
-3930 -4303 -8611 0
-6283 3716 305 0
4164 5547 -686 0
3955 9413 5456 0
136 -8354 -1789 0
5375 7954 6844 0
-2587 1172 -8967 0
-8377 5467 -9251 0
7013 -2571 9891 0
8731 1487 8457 0
-695 6205 -4639 0
-3281 -9289 7672 0
-4827 2264 -9018 0
9563 7873 9424 0
-266 7992 452 0
-7137 9260 -205 0
4004 -5863 7817 0
2522 -1280 -1630 0
-9391 7558 6310 0
3465 -581 8590 0
-1110 -4733 -2959 0
6566 -4241 3616 0
7044 -7882 -8434 0
-4294 -7140 5241 0
-6161 6652 4887 0
3776 1321 9438 0
1904 -6641 8196 0
6610 -722 7123 0
-352 5924 3361 0
-6774 -9984 3935 0
-725 -5047 -6130 0
-5364 844 6120 0
-6045 2985 8164 0
-2047 8186 -4712 0
5039 -7149 4578 0
4579 -5294 -9680 0
7650 4502 4667 0
7785 -2713 -346 0
-9717 -6630 -2658 0
2138 -552 -2634 0
-7879 6761 525 0
-6055 460 -9460 0
8506 -5427 -2849 0
-1829 4495 -4006 0
7298 -6970 -9735 0
7455 6280 -5089 0
3616 4008 -7310 0
-25 -1356 4674 0
-1010 2800 571 0
2425 -3932 4238 0
-8838 4817 6841 0
9974 1731 -7986 0
9245 -6983 5247 0
-6252 -7837 -7725 0
4320 9346 9777 0
-5508 -3870 -8646 0
-5893 -667 6310 0
-5469 7073 5875 0
9357 -5385 4947 0
-279 469 1200 0
-716 1346 6726 0
-6806 2772 -2060 0
3199 -9016 -8196 0
6727 -7976 805 0
1231 -4992 -6647 0
8055 -3563 8829 0
-9527 -9005 3651 0
-2263 4168 5694 0
-5054 3606 5092 0
-9581 278 9540 0
-5387 -3965 -6312 0
9696 7793 1002 0
-5419 -6981 -2926 0
6552 -7743 2306 0
2320 5452 -2396 0
-3689 -3754 7085 0
-9563 -8909 3280 0
-2344 -8121 -4860 0
4808 5336 -9259 0
-7747 2159 -743 0
9354 -2145 6612 0
-1025 5249 -7323 0
9245 2011 3717 0
-6291 -9251 -1052 0
-3424 3298 2756 0
9448 4241 -2350 0
6788 -7849 -8186 0
6895 -3173 -7345 0
9203 -2783 6845 0
-3464 -482 -900 0
-8946 4934 6326 0
4760 -5411 4002 0
-1457 143 8533 0
1996 -4701 5313 0
301 1936 -5566 0
-1539 4758 6056 0
3816 -3675 2110 0
9493 5468 974 0
6786 -9553 2858 0
-8463 -374 -4827 0
-8751 -333 7030 0
9127 3309 -345 0
-9197 1191 8306 0
-661 -8586 333 0
6005 3471 -6412 0
6587 8671 -5244 0
8618 -1581 -5708 0
1094 -4622 -5951 0
1268 -9580 4061 0
2568 3200 -5857 0
-8161 -7555 7513 0
5289 9386 1590 0
-979 -6875 758 0
-6253 4425 -9108 0
8766 -8762 903 0
6055 -730 -1402 0
8248 1359 -338 0
6183 -4579 1428 0
2937 -3546 6589 0
658 1679 -9913 0
9479 -4710 9606 0
1870 8602 7376 0
8139 -6091 -9194 0
-5987 1336 -5775 0
-2367 9241 -1627 0
-61 6115 1285 0
698 4940 -8856 0
-5921 8059 -2128 0
-2368 -1426 5902 0
9139 -7261 -1156 0
-1375 3824 -664 0
-1021 -5151 1484 0
-6607 -2185 -6143 0
-3897 -3376 -6043 0
-5854 -6861 -6898 0
4274 -3322 4941 0
-9760 8816 1170 0
722 1483 -3944 0
2575 -7617 8187 0
9000 -6914 2099 0
-988 5520 -3179 0
-133 -1282 -7003 0
-9164 9638 -985 0
-387 5942 1044 0
-2369 2485 -7897 0
5688 -5124 2284 0
7155 3022 -8004 0
9983 2699 -7517 0
-2039 -2972 3036 0
-7340 -4753 -9174 0
74 -7723 4220 0
-4212 -5770 4530 0
-9409 -1332 -7570 0
2511 -586 -8192 0
8525 -9156 3290 0
173 -3880 3499 0
-3833 8498 4253 0
3683 -5307 9282 0
8700 3078 1061 0
6935 -9040 1374 0
-5772 7653 -6697 0
4155 3956 -5306 0
-2801 -8350 8026 0
79 -9243 4422 0
-9966 -5916 -239 0
8900 -7197 -4399 0
8700 -3236 -1212 0
-9736 2399 -9327 0
2233 9181 6312 0
5687 13 7540 0
9067 -4705 -896 0
2792 -6730 -7142 0
-4428 1703 7349 0
-4382 -7682 3336 0
-322 -6090 -5474 0
408 -2266 2695 0
-1886 9513 -5015 0
1672 -9708 8556 0
5381 -3886 -6432 0
3920 -6548 9963 0
-1320 -4116 -1288 0
-8831 25 9160 0
-1229 5834 -4615 0
-9600 -9258 -706 0
-1414 -8861 4926 0
926 1112 -9887 0
240 -6860 2516 0
-6753 -5351 -6193 0
9044 750 2869 0
-9355 6847 -1250 0
4991 -2944 -9136 0
-4767 -7804 3618 0
-8298 176 -2181 0
97 -9934 -9053 0
-8554 -3270 3541 0
9047 1353 9598 0
1387 -6795 5699 0
-5007 2159 4298 0
-4954 1464 6386 0
8228 -9946 -9274 0
-9679 3802 5911 0
1210 9285 4974 0
2479 -348 -2928 0
-4609 -3422 5577 0
2453 -9865 5970 0
-5980 2539 1476 0
-7087 5168 4808 0
4258 -7088 6772 0
9838 4582 -1926 0
8765 845 -6581 0
6190 -3779 -6388 0
-1602 -8217 -1895 0
9118 -2643 1118 0
-8562 864 7853 0
8804 6901 -1900 0
-793 -6248 -9458 0
3616 901 4033 0
-2152 -8166 5931 0
8788 5009 -6556 0
8814 3711 6592 0
6122 -3405 2318 0
2876 6767 -5126 0
-4816 -2783 -249 0
-9594 5468 -8047 0
7898 86 -6705 0
4477 397 -5251 0
7762 553 -5931 0
431 -1105 7969 0
2490 761 -6537 0
-6749 9247 7586 0
-7074 7765 -228 0
-7543 258 -3461 0
-4478 -6478 8387 0
4642 -4222 4687 0
-9328 1857 4825 0
6527 8969 6774 0
-5351 -5234 -197 0
-5681 -9311 9653 0
-2288 -5934 6160 0
-7315 5780 -5490 0
18 -1634 -8057 0
1723 1482 -183 0
9978 330 -7700 0
-1514 2701 -3972 0
-943 5651 5421 0
9084 -4827 -7099 0
4114 6277 2980 0
-6637 1757 -1132 0
6128 -7430 6203 0
-9506 -7859 -1981 0
-728 2865 -3190 0
-1040 4000 2195 0
4817 3702 9605 0
6548 7293 -9398 0
793 -7926 -7800 0
-4781 -4459 5559 0
3599 -4139 6079 0
6449 -9105 7516 0
-5343 74 -711 0
-8388 7633 4720 0
906 -1605 1802 0
-8762 8162 4810 0
5326 -7845 -2661 0
-1843 1496 6592 0
-8003 1921 9251 0
6783 6556 -2134 0
8919 5173 5657 0
-9730 -8375 7066 0
-670 -1026 8511 0
-5780 3429 6213 0
-1556 533 2500 0
-5215 -8932 -8440 0
7413 9525 -3952 0
2689 -2571 2191 0
-278 -6933 1715 0
-840 -7277 -9888 0
6775 8192 7548 0
-6022 3023 -6200 0
-5585 -1418 -8381 0
9049 -7631 -380 0
-6931 -6454 7443 0
-7052 3237 5451 0
4098 3973 -1852 0
-7237 5208 -1238 0
-3742 2526 -8667 0
9556 -3263 4510 0
-1655 -2558 -4274 0
3466 -9087 -2799 0
2936 6858 -915 0
-1516 2830 8962 0
2974 5841 7199 0
1485 8786 9994 0
-8394 374 7730 0
323 -2446 -1683 0
-7827 -119 4502 0
5904 -7209 -1575 0
-9782 3298 8517 0
6513 -5291 -184 0
3759 8789 4809 0
3972 -852 -9893 0
-5778 9240 -9446 0
6169 -2704 -8244 0
-1364 -1730 105 0
7478 -4104 3017 0
2614 2597 5303 0
2224 6105 -7991 0
7600 7241 -6062 0
-8480 -3047 -519 0
2805 2425 -3183 0
-3093 8539 8679 0
-9663 9245 -2450 0
-8670 5085 1241 0
7891 5008 4703 0
539 7124 4240 0
5523 -8518 5038 0
9995 -1938 -819 0
6084 -4726 -3783 0
-6546 1667 2180 0
-5471 9525 -8742 0
-3904 3519 -2651 0
6042 9010 -6092 0
-1516 8250 5062 0
-6769 2803 2915 0
892 -1736 -6798 0
-5301 7025 -3705 0
-71 -5658 -7017 0
-2702 -4201 1812 0
-9773 2599 -542 0
9700 -2471 -6909 0
265 1149 -3294 0
-8430 1548 156 0
-2426 539 6107 0
5829 -6915 -6933 0
-468 -4406 -8596 0
-3224 9422 6982 0
5676 -268 -5843 0
1819 5291 3322 0
-281 -1576 1977 0
9998 3186 1035 0
-1567 5276 1849 0
223 -2325 -9397 0
5530 -4744 -811 0
260 -9427 -392 0
5289 2035 -4885 0
5767 3597 -1600 0
9216 -9140 4000 0
-6410 2436 5280 0
-7542 3721 350 0
8927 240 -5882 0
-7266 -8490 4205 0
3067 -4937 -969 0
4926 -7739 -361 0
9343 935 -317 0
-5438 7584 -1331 0
-4564 5725 -7151 0
-884 4298 -7204 0
1591 -2657 6161 0
8350 4146 -423 0
-8172 3533 -1283 0
-9550 2938 -1758 0
3460 -3769 523 0
2917 9939 -7443 0
5871 5312 -3581 0
-949 6857 -1007 0
-6037 9719 -874 0
9208 2648 -6270 0
6628 -1692 -3872 0
-7412 1272 -6826 0
-4705 6071 -1436 0
-9709 -4208 4574 0
-8621 -4898 5764 0
2740 5235 -8215 0
2786 3348 -1921 0
-430 3352 -9208 0
-4217 5018 5559 0
2487 -3274 5699 0
-4771 -5060 -1404 0
5531 2340 -9876 0
-17 3735 -3296 0
1957 -4634 2798 0
383 3813 6321 0
-3961 7479 145 0
7822 -4390 -7666 0
4400 3830 4816 0
-3464 1156 -2411 0
-7697 9170 5365 0
8670 326 3371 0
-7877 3072 -7699 0
4642 -1881 -953 0
-4639 -7750 6385 0
2667 -181 -7627 0
3159 1685 -3642 0
-6564 -7483 -6566 0
-6844 -252 6878 0
-1011 4243 7703 0
2028 4867 9002 0
7063 9404 -3765 0
4453 9546 -5252 0
2237 3584 9335 0
-4584 1651 5555 0
376 -6999 -8623 0
4575 4928 7674 0
-7621 4465 -8529 0
-1882 5552 9180 0
9490 9016 6041 0
6736 8711 -5063 0
-4825 -3887 4786 0
7998 2017 -5360 0
-6521 1296 -6433 0
-9227 -3313 7676 0
-7148 -6730 -757 0
4022 9264 -3624 0
-169 -8314 -837 0
8176 -8627 4823 0
-3262 4466 5737 0
-448 -8648 9422 0
-4295 6243 -3312 0
-4750 7099 -1778 0
-6024 6890 -6989 0
8969 -6614 465 0
-5046 6996 -1912 0
9978 7320 -1082 0
6708 3467 1220 0
-8607 5666 -2436 0
8746 -5915 -9885 0
-1568 -7629 6324 0
-5560 -1563 -8081 0
7231 1390 2198 0
8409 -6941 -8856 0
2400 2554 3326 0
-1831 -4714 -4742 0
-163 -348 -9869 0
-3298 8160 -2338 0
-1121 2375 -7804 0
-7100 -2623 7881 0
-2166 -679 9679 0
-2752 5203 7907 0
-9491 -5643 6988 0
1108 -3362 1381 0
8468 -5942 414 0
-5173 -4304 6030 0
9588 7814 4733 0
-3667 -6301 2537 0
-4539 -4667 6478 0
1878 4449 9677 0
-9812 3078 2319 0
-70 -1123 -7763 0
527 -888 7928 0
-1481 -4284 5860 0
-5115 -4582 7482 0
-1213 -5521 -1282 0
-1909 6601 -9923 0
3987 2738 8060 0
2892 2397 -1454 0
5202 421 -9037 0
202 9839 9842 0
-8271 -456 -1348 0
7350 969 2838 0
3203 -7170 9639 0
-451 -1639 1254 0
9911 6557 3195 0
-3436 -4716 5067 0
-1488 281 9813 0
-418 -2429 -8780 0
-2576 -8751 -8287 0
460 -4846 9756 0
-9339 -9364 -9149 0
-2751 3836 -9286 0
-9101 504 7737 0
-3427 -3057 -4923 0
7488 -2535 -2853 0
-8635 -8794 8965 0
-4648 1638 8686 0
4896 -5644 -223 0
-1939 -805 8700 0
-7921 -109 3383 0
-9911 -3121 1914 0
-6538 -1435 -1262 0
-3948 7889 5126 0
-727 -6172 2039 0
5732 -8151 5283 0
-4944 -5879 6247 0
2863 -7142 2839 0
-5694 3035 -794 0
-6548 -5963 -4512 0
-4028 -1114 -3275 0
-4830 4605 4873 0
-5887 8791 -7308 0
-5807 -9219 -3101 0
-8358 -4397 9609 0
1393 8700 -5377 0
5012 -9848 -6519 0
-1991 -3152 -5582 0
7606 -6240 6901 0
5275 169 -9446 0
-3955 6466 -408 0
-1385 -6675 3717 0
-7252 -2915 -7286 0
-4711 3129 2520 0
-8650 -6099 6638 0
-7341 4091 -4940 0
6035 8142 5116 0
-5309 -396 -4733 0
9041 -3187 2581 0
-1774 -444 7624 0
8772 8472 984 0
-9906 7106 -5898 0
9880 -3797 1033 0
8366 -3576 -1070 0
-1010 -129 8282 0
1311 1643 8465 0
3048 4154 -5347 0
-8175 -2963 172 0
5021 8139 5214 0
-349 7127 -1046 0
4382 5148 -6476 0
-1454 4246 5120 0
4778 6084 8641 0
-6435 -1421 5960 0
4281 -2639 -1128 0
-2412 259 2636 0
-7754 -5470 8234 0
-4245 2608 3984 0
6793 -5418 2804 0
-6462 7663 -9049 0
3846 -1621 -3517 0
-1714 -8565 -391 0
-639 4957 3662 0
5526 1463 -1202 0
1702 -7837 7177 0
5931 2614 -9214 0
-62 -1121 -3221 0
1206 -512 6617 0
-5307 9560 -3489 0
9703 -1498 -3363 0
6059 -3791 7220 0
-1793 -7300 8640 0
9369 -4155 -9686 0
2849 6382 7003 0
8405 -4616 8978 0
9419 -9777 7742 0
-6961 1983 -3073 0
8247 3146 9388 0
4078 -319 -2103 0
79 3994 55 0
6425 -5442 5700 0
7506 -971 805 0
-6085 1724 -7799 0
281 -190 8466 0
2400 -8640 -1379 0
3399 -4246 5282 0
-6751 5042 9939 0
9680 -1534 -2704 0
2303 -3420 -3042 0
2760 -5853 4638 0
9524 1363 4662 0
9704 -914 -4038 0
-4499 4435 -1018 0
794 -2431 -8832 0
-8550 -1325 8820 0
1034 -4845 1018 0
5625 -2824 9890 0
3248 -9306 -3206 0
-7227 4970 -4762 0
-1244 -4878 -3286 0
-1274 -4325 -7341 0
-8047 6762 -7470 0
-6654 327 4514 0
7535 -1475 -3796 0
4336 1273 -6542 0
1325 -6322 -2790 0
4728 -3169 -4467 0
5672 -9780 -5592 0
8349 3631 -9101 0
-6688 6591 -1276 0
6956 -7851 7079 0
-1369 1736 -9540 0
-6246 9404 7027 0
-9994 -1281 -5808 0
3496 3836 5856 0
-9919 3331 828 0
-6808 9466 -964 0
9787 2700 -9804 0
-6708 4433 -3717 0
2559 5177 6889 0
2807 3199 5522 0
-9341 6085 -7947 0
7699 -4683 -5505 0
-1833 -168 8884 0
-1430 -309 -128 0
-1737 -8362 -3874 0
-9700 -7722 9853 0
2898 7238 -1207 0
1398 -2629 -6186 0
-8666 8705 3808 0
708 7378 -3002 0
980 -3845 -9419 0
338 4759 6657 0
-9174 -6816 3415 0
-7707 -1211 9203 0
1612 -4828 2825 0
4064 -8631 5128 0
1836 -2154 3485 0
4675 -428 -5461 0
-4025 -2429 -8803 0
-6861 3396 3969 0
-1450 -1388 3690 0
-8749 8613 8802 0
9647 6558 8683 0
3007 6024 6980 0
8349 -2787 312 0
3173 -8646 -7572 0
-8002 4923 -4910 0
-2823 4517 2265 0
1826 5785 -5706 0
-6378 814 834 0
4020 -2218 -2412 0
5983 2953 3419 0
4471 2130 -9302 0
6803 8470 -7897 0
1890 690 -3343 0
-8665 -7385 -8628 0
8621 -3201 -4918 0
3124 -3131 -3326 0
-6 563 5796 0
2092 8956 6018 0
9669 -1675 -1370 0
2432 2850 1718 0
4792 -3384 -8735 0
-732 1626 2832 0
-501 -4915 1401 0
4684 -5494 9831 0
2322 1673 683 0
8992 -2368 8460 0
1275 5417 3786 0
9830 6035 572 0
7133 -8911 -6720 0
6049 7048 -8927 0
-4624 -3952 7681 0
4663 -5813 9010 0
-8342 -7966 8258 0
1738 -1421 -5404 0
5926 9426 6006 0
-9948 6872 -6854 0
-8325 -5318 -2177 0
7068 2819 -4425 0
-5733 -9650 8342 0
9697 -895 4300 0
-9887 -2113 -9001 0
-5798 9971 -7676 0
4069 2742 -7576 0
-7900 1623 1371 0
2270 4824 -4619 0
-4945 -1527 7367 0
2663 5092 -5429 0
-3226 -3327 7736 0
9697 3844 5213 0
6468 -8132 -3420 0
-3052 -5867 -204 0
84 8669 -4648 0
-2090 4181 3110 0
-840 -7277 2333 0
9445 9816 -6528 0
-5347 7478 -7675 0
6012 2417 -7704 0
-515 366 9968 0
2432 2140 -4283 0
-4189 -5219 -2163 0
7213 425 9480 0
5362 991 -8595 0
132 6576 5712 0
-6156 -7840 7481 0
3015 -8153 1562 0
8318 5014 -973 0
-8026 -5808 -3185 0
-6679 -4041 -8589 0
-868 2558 -4884 0
-6931 2081 -468 0
-8614 3545 -2274 0
-3872 -4757 9233 0
-9510 -2195 -7764 0
2395 4426 -1341 0
-5881 3990 465 0
3794 7065 6048 0
3612 8973 -2642 0
6587 23 -339 0
-2239 -897 -7424 0
-141 -1381 7089 0
3835 -1769 -6403 0
7102 -338 -9740 0
-8354 2770 1785 0
6256 -4076 -2771 0
7391 -6771 6277 0
-9022 828 9157 0
7372 -2434 -3143 0
3315 -3818 6650 0
7104 1866 -4488 0
-3871 6862 7839 0
4420 -302 9706 0
-357 1592 -7077 0
-2122 -9295 -853 0
3276 -1048 -3860 0
-1961 -8855 8301 0
2625 -8094 -3982 0
9548 -9366 -1942 0
1497 3943 461 0
7336 -4182 -5201 0
-4562 8564 -9724 0
-1820 -9198 8369 0
7756 2220 9267 0
6312 -2235 -4271 0
-9156 -3903 -1390 0
8816 8252 -754 0
7380 7759 1327 0
-5372 -9301 -1791 0
7680 6427 1828 0
-2269 -4433 -61 0
-8448 8512 -3694 0
7772 3742 940 0
-6737 -388 3959 0
411 2649 -9964 0
2949 8527 4513 0
-5212 3090 -4979 0
5866 -2691 -9506 0
5542 667 -1826 0
6482 -6616 -1945 0
7010 1593 -2033 0
-8743 -6086 4727 0
-8608 -9142 -4417 0
-5838 7237 -8847 0
-6565 7606 -3817 0
1702 3632 -9472 0
-827 1322 9119 0
-6097 -8092 4565 0
-8147 -2963 94 0
-385 9361 -7200 0
3273 -6485 -211 0
-1736 1952 -2557 0
1473 2818 7711 0
-7857 -5957 -2763 0
-6589 8438 3843 0
8740 5071 -2389 0
6150 5922 -5012 0
600 -1896 -4760 0
-5676 2616 939 0
1562 5257 4065 0
1985 -929 8853 0
9794 -5654 -9061 0
4321 -8985 -1107 0
-3232 -2478 5178 0
-6901 -7670 7952 0
1923 2834 9154 0
-4804 3832 -5991 0
-6365 810 8975 0
-2113 -6065 8610 0
-7734 3412 -9260 0
-7050 6091 2895 0
477 2775 2513 0
469 -604 -7658 0
-2583 1838 3451 0
2068 5770 -6840 0
-1210 6545 7826 0
-610 -4442 -3271 0
3154 -5331 891 0
5885 -3854 9954 0
5717 9935 5526 0
-912 -5016 9245 0
-4723 -9172 -6281 0
3937 1004 4952 0
877 -3840 9228 0
-5166 -9085 -1121 0
4781 -2965 -2922 0
-6483 7420 2958 0
-349 -6084 493 0
-3563 2116 -9019 0
3792 623 -1328 0
2269 9223 -6655 0
-5461 -9930 -4268 0
91 5307 6467 0
4544 -644 3602 0
1913 8792 3551 0
-6258 6624 979 0
-7702 697 8519 0
-3160 -7355 1380 0
478 1780 -7850 0
472 -6819 -9935 0
68 5926 -1317 0
-5722 3483 -9187 0
-2250 -9400 -4685 0
-7269 1318 -2238 0
-2354 6852 -9539 0
8415 -3266 9028 0
-861 7235 5127 0
3844 4911 210 0
8542 -2422 8662 0
-1870 -2008 1888 0
7790 5048 610 0
-1793 3714 5535 0
-4860 5093 -172 0
9844 5300 5266 0
-1009 -4755 -8417 0
-1021 8076 -696 0
79 -7159 -3046 0
9537 -1146 849 0
9569 78 -986 0
-4771 -3956 -6502 0
-9347 -674 1024 0
9133 -4605 -4843 0
8679 2037 5644 0
-2236 -1530 -8744 0
5118 -3111 8713 0
4230 5919 -7158 0
276 -7764 4999 0
-3104 -6155 8038 0
5736 -1705 -6068 0
-1153 -6347 9934 0
-5809 -1993 -3948 0
-7732 4088 3866 0
-1050 -9717 587 0
-6378 -1036 7187 0
8333 2239 -989 0
-1717 8541 -8047 0
-6421 -8386 -9414 0
7568 -9313 174 0
-4552 -3022 -5259 0
-6532 -6797 4634 0
-763 -2114 1354 0
-9416 -2181 9927 0
-2439 8179 2675 0
-1463 -2166 -1041 0
-3313 -9175 9530 0
-8949 5420 -6923 0
6197 1158 3442 0
8890 -6481 153 0
7349 4481 7185 0
-3283 -7875 782 0
-577 9968 8627 0
8925 -7567 3572 0
4355 3284 -4001 0
-8238 -9538 1900 0
1391 5369 4901 0
-4210 -3794 -7445 0
9598 -2152 -4656 0
6813 9345 -674 0
5358 3209 5351 0
9642 6454 -9053 0
-7949 1709 -3246 0
-5151 5776 1033 0
8706 -1176 4816 0
5728 -7762 7845 0
-1099 9146 -3264 0
3114 -7635 -8997 0
-619 2807 -9588 0
-6183 -8306 -3029 0
-570 -7794 -9450 0
-5114 -5559 8698 0
-9693 -7577 9660 0
4401 -9237 -4939 0
3640 -9916 -3879 0
-1906 -8061 7596 0
-1161 9593 4029 0
-3527 7718 5806 0
1611 1925 -7344 0
-7992 -7659 -9960 0
-2936 4016 5994 0
-701 -9491 -8237 0
-7152 -1565 -2794 0
860 9011 1214 0
872 2811 931 0
-2569 7114 -4543 0
-1342 955 1454 0
9287 4932 -5125 0
-8558 9720 -5033 0
-8547 7687 8869 0
2076 6684 9432 0
-5438 -4235 -365 0
6464 4010 584 0
6695 -7141 8742 0
9407 2987 -7333 0
5734 -3893 3399 0
-5779 7671 6123 0
-3766 2625 6361 0
7889 -3348 -7671 0
-2726 4040 -4816 0
-568 -3715 -7965 0
2253 6783 -1374 0
9580 -8044 4225 0
8697 4336 9858 0
-3404 2646 -6244 0
-7275 5257 5672 0
5781 8093 4224 0
-5888 8896 7207 0
-3136 -4254 7266 0
-2864 -9059 -636 0
-9079 597 906 0
-5454 4825 -8761 0
4168 -7827 9437 0
1594 -6024 -2719 0
8582 2724 -5178 0
-4066 1870 -1794 0
-9645 -2358 -6327 0
2300 3938 2997 0
1059 -2411 -834 0
-7039 -4371 1664 0
-9898 -3532 5066 0
-763 -2921 3838 0
8457 -547 -5320 0
501 -4615 6510 0
7742 -3983 -9952 0
-4652 5013 7612 0
-9697 4479 -9859 0
9367 2730 -8948 0
4729 -4368 -9448 0
383 -6174 -9577 0
-7455 -3960 -5792 0
-5299 5077 6708 0
3097 4800 -4854 0
-9247 5402 -4778 0
3214 393 -7169 0
4411 8961 3070 0
4898 4881 -6931 0
-8263 3800 8309 0
-4827 -385 -3301 0
-5338 2831 -7068 0
6884 150 -236 0
2378 -2296 7585 0
2163 3223 -806 0
8861 -5191 -9540 0
4228 8917 -3909 0
3350 -8451 -3539 0
-7842 7274 1765 0
6527 2448 3110 0
-4007 1695 -8352 0
3716 -7261 -3457 0
6413 5518 -3930 0
8909 5853 662 0
51 -1172 9985 0
5118 3446 2681 0
-1718 3626 8078 0
4390 6016 -1292 0
2480 9082 4848 0
-1869 6221 807 0
7313 -6207 9541 0
2919 -6047 -4696 0
-8084 8407 -2168 0
5516 -8639 9273 0
-7952 -516 -3857 0
-4320 8992 9683 0
-9028 -4892 -1304 0
5106 -4397 -798 0
5472 5727 -1881 0
-8841 -7139 -4468 0
-9636 -3434 3328 0
1922 -7548 -5366 0
3488 7241 -7881 0
265 -3791 -1015 0
-5876 4603 811 0
-8476 -8628 8284 0
-2978 -3408 7182 0
-9763 -3085 7661 0
8161 -1238 3775 0
-4491 724 8354 0
-4469 2726 1514 0
4686 -518 -1890 0
4393 6865 -8707 0
-2777 -5513 9757 0
-8853 2365 -2009 0
1334 4384 4215 0
-4030 -1466 4832 0
-3888 -6808 5235 0
-4875 6021 -9911 0
3315 493 2809 0
3895 -4360 -5368 0
8042 -7676 8471 0
-9600 2456 2899 0
8525 9312 -2811 0
-9116 1237 -7709 0
-4585 -7055 9143 0
-9001 2570 866 0
3573 7703 5528 0
-3957 1991 3097 0
3057 2302 -7093 0
8556 -7758 4629 0
-117 -4494 -6602 0
-9744 2087 -918 0
-621 -1054 8810 0
9181 -8796 9022 0
1013 884 -6528 0
1552 8558 9132 0
8600 -9305 4503 0
-7505 241 6276 0
9861 6021 -9668 0
2250 9320 -5440 0
7144 -6820 -1346 0
6954 1718 -8822 0
-4171 -2444 -4530 0
-9839 -9906 6930 0
-9127 373 -6618 0
8246 -3138 -7164 0
-9135 2727 -915 0
-140 9563 6924 0
-6258 -2962 -217 0
4837 -8557 3211 0
-3812 8925 -5176 0
-569 -1217 3803 0
-2151 924 7758 0
4416 -2844 4724 0
9290 5702 6334 0
4319 -2860 362 0
-4044 2369 4729 0
-6884 1052 -3155 0
5449 9819 5714 0
-6388 5982 6485 0
-8556 -9959 -2420 0
-4971 -5845 9409 0
8070 -607 -2507 0
-1063 -1099 -8145 0
1400 1793 1042 0
199 -5896 -5184 0
7061 -6572 -3130 0
-7767 2513 3186 0
-3076 -1768 3489 0
5817 9002 -5838 0
8183 -567 139 0
-9157 3698 5109 0
-5966 -3301 -4177 0
-8079 -9626 -6724 0
-8526 2740 2714 0
-8772 -8999 -6197 0
6626 -4701 -1511 0
4314 -261 -1192 0
793 -9897 35 0
-8475 -6831 -2654 0
-6871 1843 6344 0
3761 -5742 -4322 0
3350 5237 -9812 0
3286 952 -7798 0
8522 -7310 -2319 0
9963 2568 9358 0
-9003 -7495 7284 0
-5842 -5415 6927 0
-161 -7946 -7349 0
-603 4729 -8366 0
-2087 -6024 3441 0
-4011 3595 632 0
-559 -3771 350 0
4301 4557 -3933 0
-7963 4261 -8313 0
-504 -2613 -969 0
-9887 671 4729 0
-9607 -6358 4678 0
-8197 -5126 4514 0
-4953 -2381 -2415 0
-1412 9000 229 0
-3813 1147 6548 0
8439 -1974 -6994 0
-927 9533 3794 0
3930 -1647 -3493 0
-330 8513 -3168 0
3717 4472 5388 0
-5407 246 7606 0
-8626 -9301 -3123 0
47 -8928 4414 0
70 903 -6743 0
7772 -3469 6734 0
-4463 -8336 -7493 0
6286 -3971 6054 0
5860 8161 -3833 0
9467 -1966 4669 0
-9773 1529 -2632 0
8970 -5563 1003 0
8868 4738 -8964 0
3162 8759 -6526 0
-2005 -4176 650 0
-8667 -6139 4993 0
-2729 6108 9070 0
6384 4158 -1732 0
2495 -4817 5154 0
-2939 1702 9847 0
7574 8094 366 0
-2738 -7477 8290 0
4884 6780 9593 0
-4729 -2117 -2290 0
7857 -2344 -3 0
-7303 -5806 -8216 0
8119 -100 2644 0
-9153 -6164 4909 0
9103 -5541 -331 0
6161 7959 9258 0
9332 8591 -3200 0
4922 8551 -1640 0
7201 7127 -3509 0
8808 -926 -5585 0
-5790 614 -5017 0
7054 4808 -7380 0
384 2849 6342 0
560 8658 -8727 0
9863 5431 -568 0
-6949 -8876 -9115 0
-7814 -4968 9049 0
995 -5923 -247 0
1917 -3698 -8068 0
6284 -1631 2116 0
2069 -8280 -6635 0
9253 -7401 9576 0
-6782 -5412 -5156 0
-857 434 -2524 0
3849 8673 2309 0
1916 -2627 -28 0
-9679 1602 8998 0
134 -6255 -1947 0
-3360 -6977 1253 0
2387 -191 -3305 0
-821 8710 -8516 0
7187 -1769 4675 0
3457 6129 119 0
7841 6656 1103 0
-37 -7402 4198 0
766 -477 -9226 0
9737 -1945 -3247 0
-2803 4648 4473 0
7908 6322 5091 0
5135 6691 -6935 0
3008 5553 -2129 0
5452 9196 -7077 0
-9404 6907 -9330 0
3483 -8504 -6592 0
-1285 -6931 -5824 0
499 2778 3352 0
5461 3201 6043 0
-4364 -8009 3681 0
-4744 2609 6678 0
5475 4146 -715 0
-8933 3605 -5533 0
7704 -6388 7725 0
9000 7753 -2155 0
9772 5063 3952 0
-2940 1413 -9594 0
3573 8333 -6427 0
-8596 -8293 -755 0
-2255 5927 5632 0
4941 6840 1473 0
-7079 3631 306 0
-5694 1877 -1075 0
-9670 1421 -8767 0
9544 -1174 -6652 0
-7702 -558 4189 0
1709 -5091 -2458 0
-6390 4685 -9340 0
4752 2313 7539 0
-3379 4263 4846 0
-845 2485 8318 0
1386 -4567 940 0
-5345 4445 -2322 0
7026 -4848 -6223 0
8561 6074 5894 0
8486 1697 9743 0
9162 1167 -9077 0
2671 9100 -1627 0
7861 -4441 -9706 0
-7070 -8992 -5922 0
-7218 -528 -363 0
-981 -5981 -492 0
-8556 -3570 -4622 0
8184 -3863 3693 0
8239 -9663 1517 0
8598 8247 1876 0
6178 5579 4950 0
-4056 9913 5574 0
-6766 -654 -6579 0
-1435 8773 -9466 0
-5114 -8587 3757 0
-4719 5885 3368 0
9360 5257 7162 0
9822 -578 -3936 0
-6635 2192 2037 0
-9999 9536 1234 0
4991 -9207 -4748 0
-5750 -4507 -2319 0
9467 5 -839 0
5613 -2347 7103 0
6894 9131 -8796 0
7555 -5415 6230 0
8518 -8686 1213 0
7413 -4606 6434 0
-4021 9068 -8210 0
-3453 -2496 -7412 0
-7367 -5831 792 0
-1338 8334 -3034 0
-9866 -9529 -6167 0
-1251 9397 -2246 0
157 -9004 889 0
2926 5595 1415 0
8402 -5928 -2888 0
-4149 2874 1356 0
-2931 4782 -2972 0
-973 -3679 -806 0
-1387 2121 -1267 0
1870 8488 -1972 0
3976 5537 4140 0
-4112 5769 -1842 0
7806 3919 1700 0
8002 4984 2225 0
-6128 -848 1237 0
9231 2564 3436 0
5766 -3105 5999 0
1898 7465 7072 0
-7004 3331 9222 0
-8925 6057 4613 0
3240 1144 5789 0
6255 5842 9649 0
7199 9645 4777 0
-5139 1566 -4494 0
-5563 -8114 -7033 0
5021 6550 -2061 0
7343 9893 -4460 0
-6701 7975 -5777 0
-8831 -5561 -719 0
3477 1836 -9027 0
-3265 -6499 709 0
4312 -7585 -4738 0
-2779 -8227 6182 0
9704 7253 -2379 0
-8889 7629 -2948 0
9516 3488 4697 0
-6813 2673 -197 0
-2173 -8723 2608 0
7857 -1290 3180 0
8522 -9466 6099 0
548 -8912 9254 0
7368 -4537 1324 0
-3148 4969 9922 0
-8160 -540 5133 0
-6626 -2845 2056 0
-2131 -5227 -4819 0
2890 -5398 7704 0
-6050 -6276 -700 0
6591 4540 -856 0
2831 3189 7107 0
-9644 8047 -4930 0
916 5319 -4963 0
6235 -2009 275 0
2575 9972 1005 0
-1873 4898 -5438 0
54 343 4745 0
-7846 8988 2304 0
3655 1735 1658 0
-4633 2546 -6287 0
8568 -2981 9275 0
-2036 8551 -3815 0
-376 8802 -2342 0
-7500 -8077 9984 0
-9278 -2342 2339 0
1423 1975 870 0
-5998 130 -5767 0
5136 1220 6476 0
-8930 3535 2346 0
128 -2075 -9470 0
5027 -9069 -1208 0
7770 -8271 8033 0
-3274 562 -2801 0
9832 -873 -4383 0
-7990 4952 9542 0
-4867 3813 -7695 0
-7023 -4529 -829 0
8198 -143 -4960 0
4842 9738 6973 0
-9991 2873 -4062 0
2228 -9361 8373 0
-4494 2783 -4437 0
-9364 5940 599 0
8362 -8256 -877 0
8801 -2934 1447 0
5856 3003 -7625 0
-8816 -7178 -2806 0
-7471 -6110 -4204 0
7571 -9762 6473 0
2206 -6075 3301 0
-3600 2765 1999 0
-1280 -6478 -8690 0
7330 -3412 462 0
-8819 -4101 2424 0
3047 -8513 5926 0
-9565 -7405 3148 0
-7549 -3407 -2739 0
3387 -6738 5578 0
247 -1921 5742 0
-9587 -1036 2996 0
2347 -718 -6049 0
-7093 4062 -4705 0
-8566 -8575 -6741 0
7343 -4185 1710 0
-9775 692 7297 0
3041 -9164 6175 0
-4763 -7873 -9572 0
-9082 -2034 8392 0
3182 9816 -9497 0
5754 -2712 -4827 0
2666 7473 4546 0
-8064 3593 8263 0
4062 5546 8276 0
5525 -2132 4213 0
-6172 6823 8919 0
5998 5957 -9116 0
6375 2975 -2928 0
6279 -1626 -8054 0
-8537 1178 -5296 0
-6916 -6459 611 0
-6373 3600 -3543 0
3254 9656 2017 0
2261 4548 -3179 0
9289 -3945 -6010 0
-610 9201 2960 0
7614 3845 -6087 0
7391 -5831 3280 0
-3498 -2102 1618 0
5444 2760 -2370 0
-8480 1799 -9812 0
1980 -2930 205 0
-4934 -9227 -9965 0
2813 -4580 -5165 0
-1710 5551 -7941 0
-1919 -9122 3772 0
7063 -9561 -6155 0
-7009 -9339 -9208 0
9476 3714 -193 0
822 -8213 1971 0
-8393 9662 3593 0
5841 6280 3581 0
-787 3089 -4825 0
1160 8722 9335 0
7031 5623 -5568 0
5832 3701 7839 0
5833 1807 1500 0
6901 6666 -5417 0
2817 1108 -3593 0
-7663 -2736 7817 0
5608 -8999 2808 0
455 -9503 -1474 0
-7956 -9814 17 0
2673 -4413 -1617 0
-2630 5803 2685 0
4123 -3885 -8054 0
9595 1428 -6577 0
5993 -4184 2521 0
8013 5818 -3468 0
-3943 -8335 293 0
-5087 -917 3827 0
352 -7827 -9429 0
-9620 -9781 2437 0
2155 8121 -9403 0
-4546 1348 -9361 0
3647 4820 7696 0
-2136 -2077 7076 0
8281 3998 4129 0
6209 -5852 -8451 0
9834 -2853 -3824 0
4670 -1531 -3560 0
8275 7210 -5724 0
3948 9232 -8916 0
-4055 -512 710 0
8583 16 -245 0
6472 -5162 -8531 0
9866 -8539 -4304 0
2285 1989 9201 0
-3238 9734 -5358 0
8358 2729 -9845 0
5193 -9768 -5301 0
-3916 2714 -4582 0
-895 -2624 -1903 0
-816 9810 -9799 0
1158 7651 -2529 0
8663 434 6721 0
990 -9019 6211 0
-1324 4564 1055 0
9760 -136 4340 0
3992 2316 -7905 0
8978 9225 3801 0
-5233 -6138 1275 0
1967 -2485 5830 0
1986 8896 1244 0
-3620 -8376 6920 0
845 1598 3908 0
-5868 8003 4092 0
2647 -363 9339 0
-5213 3094 -1527 0
-2249 6807 649 0
9176 -713 -1931 0
-3339 -7170 610 0
8733 6573 3113 0
9687 4167 2956 0
6389 5001 -5318 0
1248 985 6991 0
557 9144 7855 0
-8570 540 -4623 0
8201 -1407 -6091 0
8340 9557 69 0
-8600 -8579 -5326 0
-7923 -8967 -5989 0
-703 9092 -6931 0
-4329 -3757 8808 0
3415 7657 -1124 0
613 -9750 -5938 0
8333 9968 -745 0
-1382 -3447 1697 0
8202 7896 -3196 0
-5202 -7300 -4069 0
-7227 -5194 7526 0
356 8459 1072 0
-104 -1234 -1255 0
6110 -9302 5434 0
3823 -7185 -4850 0
8038 1002 8094 0
-8355 7294 -6882 0
5392 -823 -3185 0
-5945 1656 -2525 0
4685 9932 4741 0
-5234 -8155 -206 0
-4703 -1328 -9202 0
-4086 -6190 2291 0
-4457 -7506 8706 0
-7982 6201 3106 0
-5232 -2553 933 0
-3038 1406 6849 0
-7388 -2510 -8915 0
-851 -7275 -7300 0
5651 7088 1368 0
1279 -6 -2302 0
8096 8643 4688 0
8830 9953 3340 0
-90 2251 -4851 0
9285 -9398 7365 0
-6058 -8948 -4293 0
-6616 -5743 -872 0
-6557 3962 4318 0
-4742 2405 -4944 0
9276 -5077 9333 0
6727 -6451 6972 0
-8341 297 -9941 0
2750 -3719 -7606 0
-8991 7412 -5645 0
4458 6459 -9041 0
5266 -6334 2112 0
4547 7524 5818 0
-7043 8499 3478 0
-8153 -2480 7136 0
3081 -7508 -6343 0
9285 -158 -3706 0
9636 5062 9059 0
6319 1119 6464 0
-8012 -9025 6360 0
-4778 5853 7985 0
4867 -8244 7774 0
-5097 -6201 -9080 0
9372 7491 -8246 0
7985 -4169 -8109 0
-8531 -5121 2758 0
-5944 7497 8985 0
428 8697 -6816 0
-2837 -624 -9981 0
-3275 7980 1441 0
-1542 4499 -8099 0
6093 6720 3653 0
1845 -7682 -1372 0
-8187 4982 -2766 0
1405 9781 -7839 0
-6069 -5544 -8717 0
6775 1222 -9432 0
-3214 -6178 107 0
-4999 -760 8563 0
3925 -3446 6933 0
318 6318 -838 0
2202 5003 -7646 0
7905 -2551 3825 0
-2294 -7991 4790 0
8090 -3198 -5621 0
3815 -3082 -3657 0
101 7785 5255 0
-4135 -6689 -176 0
9480 -9863 -7261 0
7099 -9825 -7799 0
477 251 -4385 0
-9558 -2314 2193 0
3429 5354 -2868 0
9693 -1737 1634 0
-7213 -1608 8324 0
9730 9756 -7792 0
-3952 -2175 1464 0
8689 2861 -2380 0
-6508 6963 2238 0
1142 7034 4776 0
8394 121 -8571 0
6855 1031 7228 0
3523 -5773 5547 0
7912 -7363 -2322 0
482 -9979 -1386 0
-8008 -89 -6051 0
-1216 -2353 338 0
-9662 -9798 -400 0
2157 7016 1452 0
7838 -279 -4351 0
1648 116 3060 0
-4825 -7421 -5201 0
-5716 -2126 5593 0
-7682 917 -6540 0
1675 -3464 3988 0
-385 1699 4228 0
-2759 11 9529 0
-4361 -8884 6713 0
-3753 1811 7756 0
6886 2986 4354 0
8772 -7475 3990 0
965 -2517 596 0
5187 107 -3025 0
1805 -2942 7979 0
-3212 -7038 2732 0
7232 230 -5790 0
4845 5710 9975 0
1394 -464 9807 0
9767 6010 -9540 0
-7582 -7329 -9314 0
544 6717 -253 0
-6741 7141 -9300 0
-1545 -8222 -1379 0
-4189 -9882 -2957 0
-8487 -5511 -1816 0
-1475 -1437 -2429 0
-2915 7279 833 0
-4392 -1884 -9918 0
3401 2924 -4563 0
-5077 7395 -5961 0
2127 -6615 1219 0
4446 2064 1933 0
9528 6867 5614 0
-2190 -9636 549 0
7032 1004 -4693 0
-7487 -3338 -5752 0
6944 5087 -9686 0
-2531 -1088 -518 0
-8911 7681 1248 0
5177 1658 11 0
-6023 -9731 -4442 0
5479 -6735 4356 0
2823 5511 2663 0
3132 -3586 -5565 0
-6884 29 8170 0
-4684 9956 -266 0
-4711 -5111 4658 0
8245 -90 -3257 0
5014 4000 -4102 0
6226 -7750 -7772 0
-8834 -9596 5344 0
-308 -2297 -6621 0
-9311 9607 -9500 0
-8867 -2773 3379 0
9696 -2450 449 0
-4476 8812 -5465 0
-8064 -4459 6829 0
4964 -4164 -10000 0
-2795 1387 9485 0
3674 8100 -1906 0
1164 -7848 -7900 0
4698 -7678 -6148 0
6531 5647 -277 0
7708 8030 4596 0
-3146 7259 -2686 0
2697 -7142 -4869 0
-6880 -9100 -9849 0
-2346 -3920 -5637 0
-161 -8509 -6327 0
-5320 6180 -1945 0
-5123 8849 3499 0
3281 -1090 -6757 0
929 -978 -7291 0
-1879 -3619 -5899 0
8148 -7375 -6337 0
2110 -7582 -4151 0
7484 6859 3596 0
7627 -6781 -5969 0
-2324 8377 -9712 0
-3594 5282 4601 0
3628 319 -6091 0
6526 -8866 9630 0
4916 222 -7431 0
1425 4447 -4348 0
5620 6090 -4660 0
-4266 5343 -8837 0
-995 -6738 6579 0
1508 -8742 7268 0
-957 -4379 -7029 0
571 5802 3798 0
4021 -104 -8822 0
-8689 2541 -8851 0
-2330 -3482 -8469 0
-2838 2535 6268 0
9962 -1766 5805 0
6532 -5554 -5370 0
6470 -5729 7100 0
2110 1288 4284 0
748 5050 -419 0
5279 2083 4755 0
-5485 -9329 2619 0
7550 -6356 1401 0
3493 -4635 -1376 0
-8546 1448 6454 0
-1331 -5036 -4722 0
-916 383 6757 0
8074 6824 -8291 0
-9120 7810 8169 0
6593 1520 4780 0
-786 -2095 -6417 0
-1314 -9389 369 0
2568 -2929 -8814 0
-1795 90 6182 0
1418 -7723 -3303 0
-5596 1757 9203 0
-3056 8011 -9726 0
1387 -1362 4267 0
-3556 1157 -1433 0
-115 -8996 7504 0
5244 2366 -8176 0
-6742 7107 -7316 0
-6625 -8037 -9743 0
1274 4458 8026 0
8068 -9209 -32 0
-4257 2223 384 0
-6443 8139 8540 0
-2450 8328 -642 0
-5674 2211 875 0
9907 8282 -5149 0
2300 6585 5705 0
6170 -71 2094 0
-8424 -8294 -3892 0
-1027 -5392 5719 0
-1129 -7158 3642 0
2459 -5428 -5574 0
-954 -2015 1423 0
3153 7615 -2637 0
-6235 -7107 -2322 0
3762 -3955 -9308 0
8230 -6654 3581 0
7713 -7051 -435 0
9451 9500 -948 0
2655 -2932 -9988 0
650 -4083 7923 0
2723 4063 6406 0
-4507 -4808 -1044 0
-5348 7769 6657 0
3138 5037 6138 0
-6447 -3160 8490 0
-7226 -4446 4096 0
5005 8514 -8597 0
-5945 4696 536 0
-9166 3404 61 0
8927 1321 485 0
8753 88 -6391 0
1218 -4131 1760 0
7263 3619 -5984 0
-3490 9047 147 0
1696 -7491 3463 0
-174 -355 -8017 0
7942 3908 5525 0
2943 -5855 7945 0
-928 -8085 336 0
5760 8973 5274 0
438 3906 -3557 0
9727 -7429 -5534 0
-5685 1488 -437 0
-8396 637 -3867 0
-3687 6114 5262 0
-5758 6713 -3260 0
-7551 -9395 5618 0
1896 275 6183 0
-8925 5257 -6441 0
1768 6028 8248 0
-7893 2113 -9166 0
-2969 -5005 -741 0
-9884 174 7683 0
-499 7007 -5007 0
5884 4376 -1342 0
5219 -2433 -2357 0
-6462 -3117 -5169 0
5176 9646 -4397 0
3657 9929 -273 0
-4516 -705 7014 0
6688 6880 9210 0
-873 -7000 -5610 0
-452 -5009 7706 0
5698 -3630 2258 0
5267 -6214 2810 0
-8960 -8472 -4990 0
-7605 5250 1674 0
-1180 2627 -4184 0
3002 -4620 -5174 0
-7567 6969 -7470 0
2228 2030 5046 0
3922 -1254 -9034 0
4952 3920 6336 0
-8013 4828 9844 0
-8887 6341 -6786 0
-6663 5914 6436 0
-6116 -1375 -9874 0
-1249 2185 -2493 0
6305 -7694 -6118 0
-5032 2125 -9873 0
-9963 2604 8039 0
1888 4287 7293 0
-4996 -4769 62 0
-2551 6871 938 0
-3154 5697 -8094 0
-5427 -7150 4889 0
3756 2889 -5416 0
-9339 -7803 -1389 0
-9745 5618 -9355 0
272 1116 340 0
3035 -970 -8836 0
-1303 -4849 -7036 0
9970 7812 -7492 0
8000 9219 -7600 0
-1268 -6502 3524 0
9820 7589 9887 0
-4980 -5077 1364 0
-1270 7984 -4647 0
-3385 -2569 193 0
-2288 -3145 9898 0
-2057 -3944 -6119 0
-5550 -2644 1100 0
-1917 7949 -2502 0
-1071 -9095 -3919 0
-9732 -5258 292 0
2210 8318 -9566 0
-6966 -5775 -6286 0
-5251 8837 -1993 0
-8129 1944 -8021 0
113 -285 1798 0
2947 4395 -3073 0
-2141 9337 1542 0
3220 -1944 -9759 0
-5603 4098 2888 0
5563 -2068 9486 0
8006 -9678 -1856 0
8297 -4789 5572 0
-5865 -3318 2608 0
7096 7573 -4197 0
-3649 802 9951 0
7522 -5934 963 0
-3469 5296 -5313 0
-9684 3603 -5590 0
7225 -1141 -1759 0
-7936 -3664 3239 0
6437 3546 9066 0
-1540 1999 -4805 0
32 -9001 -9294 0
-2709 -3807 -4231 0
3037 -4816 -8903 0
-5969 -3086 -9357 0
-9477 283 -4621 0
-7186 -2218 1815 0
8187 9680 -1232 0
712 -1968 3293 0
2643 -8545 -1095 0
-6232 6802 9391 0
9006 -2709 -1767 0
-2866 8984 7627 0
9885 -1985 -8423 0
9021 8471 5902 0
-6359 -4859 4165 0
7296 -5585 -4220 0
-3735 590 -945 0
2221 672 4198 0
-3814 2343 6570 0
2358 -3741 -3243 0
4764 -8397 6048 0
8462 -9801 5698 0
4670 -8193 8432 0
9217 -1862 8464 0
65 -6485 9323 0
1107 312 7837 0
678 6826 -6796 0
-7252 -2307 -5809 0
3321 6694 -2562 0
-8639 4458 -7953 0
6325 -5507 2819 0
1118 5458 -8166 0
9297 -5049 6790 0
-1682 -306 -5442 0
1362 4319 -8941 0
9347 4224 -7803 0
6629 -7787 -9449 0
9448 2505 2473 0
-7853 6388 -918 0
8517 -1598 -1100 0
4734 8269 -1025 0
4307 4423 -8836 0
1093 8247 9585 0
-5574 1844 5681 0
-7014 -125 -190 0
-1337 -1927 3339 0
3088 -4521 8934 0
-449 2884 9155 0
-5272 5000 5625 0
-7493 6700 5428 0
-9087 561 -8084 0
2334 -2780 -2140 0
8081 -8680 7941 0
2994 3352 -1269 0
610 -6496 -2877 0
187 5379 -9570 0
-2790 7580 -5687 0
516 4642 -3858 0
7572 9780 -9757 0
2862 2658 4988 0
8732 1543 -5539 0
5775 4727 -9750 0
-3991 5643 -2036 0
-2142 -6372 1380 0
-3851 2625 8333 0
9200 1518 -2955 0
717 -2483 -9791 0
3470 6362 8025 0
2537 469 -1661 0
6907 -4932 2628 0
9674 1881 -6336 0
7261 7800 8964 0
-4895 9864 112 0
-4651 -7226 288 0
4058 3093 3798 0
-3612 6552 -932 0
7206 7885 1269 0
-3074 1313 5241 0
2096 -3408 3827 0
-2489 -3682 6601 0
5716 3055 -3880 0
-3235 -7775 -178 0
-2841 -3066 3198 0
-3946 -2554 -7895 0
4599 8519 -4402 0
-1722 5446 6211 0
-2647 3578 5080 0
9780 -7847 2276 0
3733 4354 8456 0
9336 2102 -8900 0
-6693 -5688 -8704 0
-566 8157 -6772 0
-9526 5757 4131 0
2491 -9798 2782 0
1871 -1850 -8901 0
-4010 9495 731 0
-636 8306 -992 0
-3479 -4386 8761 0
-8981 3131 -1426 0
4022 -1610 -8891 0
4073 -7111 -10 0
-9966 -3263 6484 0
-6375 602 -5182 0
3633 7135 -8535 0
-2080 -4938 5908 0
-7725 -4844 1057 0
9594 -6660 -7657 0
-6048 -5165 231 0
4751 -2440 142 0
7472 6538 1120 0
3978 732 4359 0
6123 3501 7504 0
-1370 -5777 8298 0
6211 -7797 -6190 0
-166 -6686 7094 0
-939 8496 7892 0
5626 -3700 -8100 0
6167 -2999 5130 0
891 8234 4910 0
-6752 574 -8010 0
-5361 -4042 8177 0
-4690 -4047 3482 0
1935 -4704 -2914 0
6616 -290 2376 0
3266 -5513 6030 0
1410 6258 -43 0
8255 5639 1057 0
-3422 -9014 -4461 0
1830 -4955 7875 0
-7239 4809 -6457 0
-1735 -3600 8191 0
-3703 6642 1134 0
-1891 623 2451 0
-7592 2494 1584 0
-7784 2343 5393 0
1159 9310 7649 0
-9949 1668 -4533 0
-6164 9361 5734 0
2551 -1017 -3127 0
-4212 4520 -7605 0
7963 1937 -1731 0
9013 -2427 8489 0
4841 1289 8855 0
7430 5692 1582 0
-5081 -7170 -9889 0
7459 -2290 -7165 0
6725 -1551 2150 0
-5312 -7325 8417 0
-8420 7190 -1826 0
333 -5132 -7963 0
-4630 2586 8599 0
-584 7969 2584 0
7255 -1577 -8102 0
-5975 -6658 -8468 0
6973 7222 -8192 0
9097 2625 -1614 0
7031 -200 9487 0
6465 997 3725 0
1062 8825 3106 0
5241 -5878 4342 0
915 6862 -1093 0
-9878 -4154 -8782 0
-807 -4143 -9292 0
771 4740 -6857 0
2244 3728 -7415 0
4139 2754 433 0
1267 6325 4370 0
2878 9292 1811 0
8389 5644 1150 0
-7632 1080 9841 0
5903 -4802 -9679 0
7405 1525 -8217 0
-9434 4318 2957 0
-8408 -815 4803 0
-5180 9791 -7211 0
9449 4807 9323 0
-2606 2091 -5303 0
-3176 2488 -7548 0
-1595 3892 1661 0
618 -948 310 0
-4700 2770 7366 0
-5427 -566 3864 0
-8503 -1248 2834 0
-5733 -8963 6528 0
6049 -4175 9164 0
4410 2948 -4472 0
8107 935 3334 0
5167 -4681 -3317 0
-6619 6234 -7784 0
1423 -8433 828 0
-6566 6003 4905 0
-3409 6532 5694 0
-9306 -9069 4988 0
-3659 -6378 -9629 0
1079 3772 -2795 0
6566 -3583 8885 0
9478 6608 9185 0
-4608 -7358 -995 0
2452 9502 -5995 0
523 -4185 -5046 0
6514 6806 8262 0
-5518 1451 -762 0
8180 5104 6773 0
1296 -9529 -2109 0
-159 2863 7569 0
5036 -263 5779 0
-1324 435 3022 0
-4555 -5013 1996 0
-58 6042 -640 0
-3370 3008 1150 0
-7723 -914 2276 0
-6649 -1938 1763 0
5713 -8940 -4358 0
6887 -8685 -1562 0
6683 -4395 -7763 0
-6730 6683 -4462 0
3290 -1493 1181 0
-457 -4547 -6269 0
-333 8652 2735 0
-1901 2349 -4814 0
-613 -8848 1096 0
4708 8364 -1748 0
1489 3021 7421 0
-4999 7668 -1240 0
-4315 1668 -9939 0
756 9036 -4515 0
-8978 9947 7201 0
-8661 -58 2802 0
-6180 4660 6659 0
-598 -6989 1551 0
-7399 4339 -7358 0
-3738 -1192 6076 0
-7630 -3757 9329 0
2981 -8375 -7699 0
-4958 -8237 7637 0
1204 -8504 6217 0
3607 6042 8938 0
-8300 9874 -4742 0
3174 4394 5833 0
2570 -659 1191 0
8832 -4381 -8327 0
9935 7030 7477 0
1176 722 7708 0
911 -9020 8012 0
-5355 1898 -5656 0
668 5641 -1897 0
5525 -8416 -6280 0
8665 -2379 -3871 0
-5335 3496 8126 0
4127 1316 -5157 0
6103 9752 -2459 0
840 -2485 -3899 0
-1437 -1024 -1132 0
8608 -9522 -6311 0
-9520 -6922 -6071 0
6775 2783 2353 0
8474 2762 -9759 0
-2179 -6404 2237 0
8747 -6103 6937 0
-2818 -4132 6422 0
3859 1738 9945 0
2207 -5681 -2693 0
-3013 -6437 8905 0
-3506 8844 9232 0
-7867 -3857 2932 0
-6221 7092 595 0
6212 7846 -313 0
-3510 -7147 4210 0
-4807 -7595 -5509 0
-6542 9403 -2601 0
6812 4411 8648 0
3549 -8600 1533 0
2176 -4947 -1119 0
-4437 2409 2862 0
8787 9953 6764 0
236 3562 7765 0
9178 6926 1652 0
9458 3002 -2630 0
5416 -4996 -3731 0
-729 -9905 -100 0
2127 5370 -6208 0
-4371 -966 -1882 0
2987 -4648 4125 0
-7184 7714 6429 0
-169 -7043 -3236 0
7569 -6597 -3042 0
6588 2068 8890 0
-8672 -4203 5883 0
8788 9157 2652 0
380 1842 3353 0
-8856 7944 -5845 0
183 -8652 -919 0
-1613 -3298 4563 0
3397 2450 -6078 0
-7562 6815 6935 0
7425 -9224 8079 0
3619 9505 5345 0
9388 -1252 -9141 0
-5254 6860 -7208 0
-2845 9054 -8177 0
-4684 8678 -4170 0
5811 -5498 2582 0
-4694 -4919 -1440 0
-9678 5001 6072 0
-292 9958 771 0
7205 5543 -7645 0
-1080 2885 356 0
-5979 2773 -236 0
180 -8235 374 0
6744 -9486 -6705 0
3566 2959 8951 0
9580 -1567 -1475 0
7180 2963 -2497 0
-6813 1692 -8889 0
-7045 -6357 -6530 0
8952 4735 -3444 0
-5490 1752 3503 0
-4612 -1782 7930 0
-9879 -1980 -5720 0
-2217 3666 608 0
-725 -7267 -3094 0
-6004 -9723 -9551 0
6623 -9407 1307 0
-8187 5055 -9340 0
5743 6904 5334 0
-5221 -1672 -5681 0
6679 4515 -760 0
5828 -281 -9054 0
-2682 269 -873 0
7476 -5441 9629 0
8675 8119 -5829 0
-7847 6061 -3731 0
734 -9162 -6637 0
8140 1955 3556 0
-6666 -8616 9827 0
-4735 -3018 -3212 0
9390 4007 -1654 0
-6662 -3907 3091 0
-5025 6725 -9946 0
-5737 -4380 2174 0
-7560 4797 8883 0
-1390 -9548 -7078 0
743 -1141 1596 0
6427 -4560 3175 0
-8937 602 -6683 0
6152 -4044 9856 0
7460 -9994 -5995 0
-6157 -5546 -9808 0
-6743 5182 1290 0
-3803 -3306 6505 0
-5828 5201 6521 0
3043 -6942 8783 0
-8382 2991 3802 0
-5543 -6904 6283 0
7987 -2967 -7783 0
-1178 6292 -4523 0
3435 -7655 -9799 0
-5309 6947 -8738 0
3513 7131 9079 0
1020 8375 -1657 0
4375 -8182 -4991 0
-167 -4183 7231 0
-7573 -4362 -5552 0
-2097 -8148 8201 0
-8069 9930 -7595 0
-4424 9118 4807 0
-9319 8686 -7370 0
9509 6677 -7415 0
-2693 365 9993 0
7608 -174 7263 0
-6249 3860 -1951 0
886 -4923 -8371 0
8412 -3787 9161 0
3364 9324 -5910 0
5609 4396 -6751 0
-12 2261 -6446 0
7568 -9078 8905 0
-3297 7838 5270 0
4031 -130 1365 0
-3811 6307 5994 0
-2101 -8630 -4838 0
-177 4922 -1945 0
5628 -4796 9203 0
1804 -8609 -2342 0
-1697 -2350 -3883 0
511 3551 6020 0
6863 7701 6579 0
-9646 -2708 -572 0
-1977 -7022 8064 0
3790 -7809 -7861 0
587 -3460 -3467 0
9156 618 -7957 0
-5898 3764 -260 0
-9502 -6444 -9809 0
-1771 -6591 3713 0
-6127 -2210 2411 0
-3081 -3574 -1018 0
-8542 -1442 7046 0
4509 8499 7425 0
5790 2888 -8909 0
8111 1732 -5995 0
-2593 8987 2931 0
-2225 475 -3443 0
-5956 -1923 -6317 0
8051 7389 7558 0
-9360 3852 -8895 0
-6925 -9363 -6942 0
-9268 -3062 4071 0
3123 -8635 453 0
1368 -8473 -7942 0
-2204 -5094 7393 0
-638 7693 2260 0
-4171 1194 -6180 0
-9572 1564 -7042 0
-4994 -2336 2989 0
7736 1757 1605 0
2381 3099 -3627 0
-847 4121 -9110 0
9043 -6053 -2775 0
1801 8002 -5827 0
7855 -7708 1948 0
3505 -4997 -3592 0
9902 6352 -7112 0
-8834 7862 336 0
-687 -4865 -72 0
-7175 -383 -7940 0
8501 -9071 9757 0
1918 -3589 -7349 0
-4642 8817 -581 0
9753 352 -9716 0
-4785 -929 -3805 0
-7883 -775 -5898 0
3560 2528 6915 0
2123 -4701 -6778 0
-7324 -1532 8604 0
-9708 6629 5906 0
6555 9830 4140 0
4288 8266 9800 0
7301 2750 -4271 0
-4931 2706 6061 0
-4084 2808 -3599 0
7184 2281 -975 0
-6793 8017 -1024 0
2056 3686 -6305 0
8526 4258 -4141 0
-7748 3179 757 0
-7613 2989 -1182 0
8781 1267 7657 0
-9182 6081 577 0
-2774 5196 -937 0
4090 9284 7920 0
-7135 6260 -6557 0
3541 -6547 7583 0
-436 6906 -938 0
2387 -4335 -4088 0
3680 -127 4569 0
3414 -1833 -8027 0
-3623 2218 -758 0
7522 5373 -8623 0
-7643 -86 841 0
-6182 1233 -4390 0
4038 -475 -8456 0
-9478 153 957 0
-6940 -149 2820 0
-6487 -3286 -1186 0
5697 6239 -4834 0
-4909 2560 -308 0
-1187 -8370 7461 0
-9840 3505 8867 0
-8112 7745 -2584 0
-8050 -3203 -64 0
6468 8122 2985 0
7174 -7079 -4067 0
-4271 8137 -7028 0
5302 -3460 3568 0
-849 -7889 3007 0
-592 -2149 -8808 0
1844 7044 719 0
-6495 4612 -6054 0
5303 9485 -8986 0
7913 -5013 -6344 0
2791 -7538 -3563 0
8206 -7665 -8323 0
-3058 774 -148 0
-8198 5904 6397 0
4332 -5709 3065 0
-9380 7225 -4490 0
5647 -9847 -8455 0
9076 5937 5156 0
-1928 782 9340 0
4697 -6488 896 0
3937 -3281 -922 0
-3793 -8816 -2706 0
-4766 6247 -4392 0
-9834 -6804 7005 0
-322 -9591 -6546 0
8043 -2200 -4358 0
724 -9413 -6072 0
5397 -6444 8990 0
8354 8718 2826 0
5553 -4439 8607 0
1196 5221 6807 0
-5066 3539 9902 0
7770 -8265 -6168 0
9789 6161 -175 0
-2139 2016 -552 0
-2261 -5992 4396 0
4984 9356 3932 0
-3861 2114 -557 0
8749 1213 -2193 0
8769 -5517 5425 0
654 4403 -271 0
4 -3812 8054 0
-9463 -2311 -5302 0
7118 -2131 2611 0
-4050 5615 5446 0
4211 7161 -70 0
-831 -7108 1376 0
9420 4962 2504 0
8157 1467 -8860 0
3142 -9403 -5448 0
784 -1333 -4105 0
2326 -1438 -8550 0
-6374 2475 881 0
-5090 9251 -1660 0
4782 -4645 -6949 0
-8339 -7979 6724 0
7424 3476 5214 0
-5043 823 9341 0
-2022 2916 2317 0
1748 -5532 8167 0
-7695 8723 -712 0
9032 3580 -9027 0
-4347 6161 -9324 0
-7509 961 -5927 0
-1690 3929 -1659 0
-4374 -6070 -4138 0
2666 2693 2228 0
747 3834 -7559 0
-3769 9476 5213 0
-7955 -1179 -8889 0
-2159 2389 5144 0
1578 -369 -9911 0
1201 8175 -3913 0
3567 -3343 -5340 0
-8503 -9646 2673 0
9856 7298 7305 0
-974 -4516 -92 0
8735 4005 -8291 0
-8002 -6862 -1648 0
-5309 3274 -5730 0
8016 721 8356 0
-358 -1152 9239 0
-339 -3191 3477 0
7055 -6322 4802 0
9485 -2238 -4456 0
-5124 2242 2159 0
-3475 -4408 8484 0
-994 -5829 8924 0
5856 -8890 6536 0
6908 3559 3630 0
8546 8760 -7106 0
-1839 544 -8484 0
-9004 2723 -6321 0
-271 8706 -6615 0
-6202 5319 -5510 0
-8992 -8057 3702 0
-7782 331 -3544 0
-8303 4975 4167 0
4463 4749 4759 0
5446 1110 -2805 0
837 -6284 1432 0
-8741 5304 -6938 0
7887 -2820 -1434 0
4191 -1148 2566 0
-5108 7621 -1218 0
-8001 8496 5841 0
6104 -6410 -7653 0
-3793 -3629 -7172 0
-38 -1293 -1009 0
6261 -2136 -4985 0
3014 1017 2242 0
7237 4488 -4610 0
4420 860 -4913 0
543 3661 3279 0
-8987 -5480 -8248 0
-2225 311 783 0
2956 -1160 5304 0
1124 6981 7316 0
736 5032 -3821 0
8326 -1854 -8343 0
-4334 -6539 7562 0
-5038 -4402 -7663 0
5488 -7706 8388 0
2679 8129 -8181 0
-7081 2243 -6363 0
4348 -1238 -6163 0
6223 9892 -2540 0
-506 4071 245 0
-2834 8921 5442 0
4953 -10 3528 0
-6103 661 -3992 0
7239 7143 -8918 0
3873 -8005 -4468 0
4593 6166 -143 0
-9048 252 8760 0
-1222 -5143 -5066 0
6769 -2712 109 0
-3523 -6070 1066 0
-2405 667 1100 0
-6877 -3574 -3947 0
6865 8010 2016 0
-9891 -6593 -5463 0
4976 -3983 9570 0
-8243 -7298 5116 0
-8220 -7095 -598 0
-3944 -8901 -7050 0
-2140 8286 -8515 0
-4864 -3533 -7818 0
5163 2768 -9411 0
-6905 7811 3868 0
6181 -1966 -8770 0
-5880 -391 -3376 0
-8007 5346 -4365 0
9204 -5533 -4309 0
-8536 261 3350 0
2341 4963 -4741 0
3259 -3153 -2903 0
4764 -4888 -3785 0
-407 -962 6992 0
3209 -4051 -6305 0
6908 -8770 6464 0
-725 -8753 -1905 0
482 9857 1820 0
4237 -6498 9566 0
-7624 -1553 -1100 0
2551 -5096 4881 0
4334 864 -6409 0
-4402 8302 2465 0
-8424 7019 636 0
3143 2189 4389 0
4482 491 414 0
-1920 -6494 7587 0
3810 -306 9487 0
-5086 -4156 -4224 0
2826 4118 6989 0
7703 9283 6413 0
-2451 1068 -1930 0
3790 -895 -9610 0
-5271 -7101 5017 0
6126 -3665 -6936 0
-6939 7957 -8032 0
655 -3596 9485 0
-9569 -9219 -2142 0
-4756 1185 -4996 0
2382 -8155 5694 0
2554 5879 -3412 0
1348 6525 -241 0
3910 9924 1184 0
9379 4540 1327 0
7812 -9965 -9371 0
-1917 -890 2677 0
-792 5402 -4248 0
-532 -512 -1275 0
-1941 -568 9558 0
9398 6696 4807 0
9437 8297 -4781 0
7658 7518 -4084 0
-1685 9614 6711 0
-1211 -5379 -8260 0
8763 3435 3413 0
8984 -1192 9575 0
-6893 362 4248 0
1752 -8477 -3003 0
797 -9593 -912 0
-470 909 765 0
4012 8963 -2091 0
-4555 3262 -4934 0
5022 4049 -6654 0
4682 -9529 8393 0
-3583 7973 469 0
-994 1096 6067 0
8581 2024 4410 0
-9915 -9340 -5884 0
-1534 -9618 4813 0
4073 -799 -9608 0
-5264 -5102 -243 0
-5736 -2502 -777 0
3770 6571 1038 0
514 -3210 996 0
-6983 9887 -6570 0
-7100 -3806 2054 0
-8353 -2017 2820 0
8121 1901 -282 0
1801 -2775 3979 0
-7208 1236 -5932 0
-1327 -9039 -569 0
6021 -3553 -8202 0
-3109 7777 3128 0
7950 -5422 -6091 0
6360 -4888 5593 0
-1251 -4520 3261 0
-6117 -902 7021 0
9319 -9966 3221 0
9792 -7817 2549 0
-856 -1706 5823 0
73 5466 -7274 0
1869 2709 -9818 0
-8554 -2001 -7888 0
3283 -8796 2186 0
-227 -2883 -3088 0
-3062 -127 -1104 0
-8417 9735 -7204 0
-3854 -4239 103 0
-6827 -9422 4829 0
-7604 -4368 3561 0
5476 -4573 -8683 0
6255 -5401 7487 0
1320 -8915 6064 0
568 -8104 -6442 0
6874 -6472 3053 0
-9737 -4217 -9503 0
4330 -9001 3136 0
653 -9675 -9003 0
-2120 3518 4797 0
-8323 4547 -4449 0
-9018 4583 -1789 0
4925 -505 8416 0
-541 5618 -6907 0
7434 2202 3467 0
882 -6954 1422 0
2086 -2190 -6992 0
2551 -9798 1113 0
-1124 7374 2226 0
6773 -8512 7535 0
-9197 -8970 -5393 0
-9870 -5265 4474 0
3980 5633 4024 0
-5660 7876 -2103 0
8588 -1881 -3371 0
8998 -4264 6325 0
-808 4106 9302 0
-8674 7398 6900 0
7842 2385 6301 0
-1631 -371 2899 0
2860 -9171 2174 0
6402 5118 -6879 0
-3775 -9282 6595 0
-7819 9320 972 0
-2950 -5290 3492 0
-4695 6672 -2955 0
-1856 -2989 -2155 0
-2116 -2202 5747 0
4979 5749 5989 0
8168 -8287 4728 0
-4223 -3298 -6826 0
2360 -8635 -1694 0
-9425 6393 665 0
1601 -8202 5166 0
1739 -6716 4179 0
-3709 6021 1874 0
-1123 -7262 2966 0
-8805 -2156 -3032 0
4686 1144 -1612 0
8778 101 6591 0
-9902 4023 -669 0
-3121 -3951 8818 0
4002 6645 4521 0
2043 -3743 -9934 0
6330 6903 -3112 0
-1137 -355 -470 0
-7544 -102 -2671 0
-2420 -8524 -335 0
7815 -5129 4917 0
6802 7843 -4224 0
-3961 8746 2670 0
-2976 -8422 4550 0
1654 -5977 -9888 0
6322 -2913 -969 0
5853 8740 -2131 0
6545 -4831 -3995 0
5444 548 -4708 0
6658 -7368 116 0
9453 7842 5663 0
-4839 5451 -8529 0
-7201 3368 -3616 0
918 5560 -5732 0
-1426 7874 1504 0
-4577 -2593 -4917 0
8241 8581 2873 0
-6604 5406 -4527 0
-2300 -175 8578 0
7460 4507 4186 0
6448 5750 8975 0
9618 -7980 -5189 0
-5641 9965 -3431 0
-8887 -1386 9117 0
4832 -7000 -9385 0
-4836 -376 -142 0
2305 3267 -4035 0
4684 5281 9498 0
-1448 1903 9429 0
6680 -8789 -8326 0
-3963 8098 -2241 0
8346 -9625 3984 0
-1404 8984 -1895 0
8697 -7108 -3265 0
-5171 -9155 -9709 0
6350 6159 5357 0
1307 7792 -1385 0
-2093 -6217 -3997 0
8597 -2550 -3377 0
-2015 -7650 -221 0
-3177 -2832 -8066 0
-4544 -6759 -1351 0
-5826 8486 7834 0
7537 4074 8918 0
-7318 117 5240 0
4438 2445 6104 0
-428 -6056 -9419 0
-1660 9190 2688 0
-8212 549 9366 0
5306 6247 -1980 0
-6991 7569 8693 0
-7589 6192 -8413 0
6462 -867 -873 0
4948 5899 -1133 0
-9542 996 1352 0
7278 -2407 8035 0
3249 -7992 -157 0
8657 4321 -5411 0
-8441 -1839 8802 0
2862 -1873 4610 0
-5057 9263 -3741 0
-9754 9112 7739 0
-5685 -8434 -8869 0
8817 -4716 224 0
786 -8480 8974 0
9793 -18 -6771 0
5986 8427 6677 0
7488 2319 -7970 0
2451 -8477 -4344 0
9081 -3124 8161 0
7228 -1264 -7303 0
7178 896 8254 0
-3627 -6720 -6683 0
8454 -100 7867 0
-87 -1178 -9277 0
-4857 -6424 5989 0
9701 -4138 5316 0
-445 -3589 -2533 0
4103 3866 9080 0
-3749 2167 -7663 0
8375 7852 -4807 0
604 5895 6447 0
2738 -9830 -7669 0
-2664 -1517 6515 0
202 -6610 5047 0
-9678 8645 9197 0
-9031 7394 5956 0
9609 -2385 -4158 0
-3909 -7637 -518 0
9025 -9021 3600 0
-6578 -6113 9458 0
-3889 1416 -4881 0
-6682 7660 -4152 0
8258 9749 -198 0
-6785 -6886 -9852 0
5301 2169 -3477 0
-1859 -8890 -1290 0
-3910 -8393 -9966 0
8427 485 -5749 0
-467 -5711 -9018 0
4100 8090 -837 0
3631 8871 -4678 0
-3284 6045 7311 0
-9500 -3664 5385 0
-3496 -435 6911 0
-788 1236 -2457 0
9784 5265 7507 0
3576 -4516 -4811 0
-9372 8978 8623 0
2881 5446 -2155 0
-6220 8677 2221 0
8173 -636 -2291 0
4538 -9036 988 0
-5163 9287 -906 0
-6198 2122 -5744 0
-9380 -7714 3807 0
-4767 -2525 9775 0
3096 7329 7261 0
3686 2246 -9985 0
-9569 -3975 8655 0
-4587 6854 5706 0
-1570 818 4773 0
-829 -2426 -2689 0
-733 -9455 1386 0
-1407 -4815 -5596 0
-3551 3723 3295 0
-1796 2330 -6804 0
8736 2538 -3171 0
-362 -4935 -380 0
4371 -7230 -2369 0
-8807 -3823 715 0
-1354 -8926 4678 0
1836 7440 6816 0
7418 -1109 4201 0
4304 -2746 -7250 0
8938 307 -203 0
1184 5871 -6263 0
1811 -1975 1936 0
7640 -9450 5225 0
5466 -7156 -1324 0
-4491 6042 6220 0
-2728 -1785 -7297 0
-545 3734 6806 0
3937 -5829 1288 0
4792 4420 9603 0
7958 -4501 -2677 0
-3813 629 1399 0
4540 831 7752 0
4921 -324 -7519 0
5715 -9785 6133 0
1364 2417 3198 0
-9181 -4475 1650 0
-7195 -9710 -1887 0
4443 -5871 9049 0
-4223 -8402 6184 0
6859 4156 4723 0
2161 9427 -9494 0
8177 -8106 -3730 0
2793 -3140 9108 0
6401 -4106 -593 0
-6337 -975 6787 0
4780 5945 -7337 0
-3436 78 -1741 0
7112 -4902 -3042 0
5335 5165 -3773 0
-5411 3389 6430 0
-4741 -8525 -9834 0
7308 5795 -4202 0
-3554 5581 9872 0
7076 -1690 -2529 0
-5020 -5511 6395 0
-5518 8046 1025 0
-3311 -5974 1071 0
527 8078 8011 0
-8131 -8798 -2200 0
-970 6513 6022 0
6641 -8151 -1085 0
8414 -3730 6021 0
2771 1109 6755 0
-427 7296 4518 0
-4373 1899 -402 0
-8287 5826 863 0
5638 -6877 6041 0
-8637 -1732 9411 0
90 -537 -6786 0
3632 3273 -2807 0
9807 6864 1775 0
-7287 8994 8801 0
-3765 -9274 8962 0
3226 8792 6917 0
-8926 -7559 -5945 0
-2868 -7888 -9865 0
2027 8263 9183 0
4843 6409 1410 0
-1631 3344 -6111 0
-7783 2546 -5345 0
5320 -8095 2458 0
-6973 -1896 9472 0
-5666 3874 7820 0
4161 7549 -8250 0
-1485 -9781 -9149 0
6975 -3060 -3435 0
-6126 -7078 7840 0
-9430 -6282 -6119 0
-9875 -9383 3154 0
1058 -8520 -9063 0
-5668 -4564 -1334 0
1107 6385 7874 0
1596 1025 3671 0
-5418 -4029 6235 0
-1536 -6842 -8599 0
427 9046 -6926 0
-9761 -7523 919 0
6240 -7168 -7203 0
9284 7942 2985 0
4056 9783 -2061 0
-682 6891 6279 0
-640 3805 -8967 0
-7133 -5502 7248 0
1027 -2257 3555 0
-3732 -6912 4543 0
-6010 2312 -1952 0
5607 -1842 -3635 0
-1463 -9952 -275 0
-6330 1768 4878 0
312 2882 5971 0
-3759 -4351 5965 0
-6651 513 2293 0
-2552 -602 5378 0
-6542 313 9123 0
218 8887 342 0
-915 -109 -7476 0
-2151 -8830 2314 0
5482 5929 -5274 0
8836 -4960 -8184 0
6521 -6834 -6905 0
-6535 6512 4990 0
-7900 -5469 3504 0
6992 -8604 -5624 0
-5165 7912 8515 0
-5817 -6766 -9857 0
-6201 -5414 -5856 0
-8683 5172 4171 0
8151 8010 5169 0
-7658 -9675 6515 0
-2686 429 958 0
3089 -3861 -610 0
-4856 -7971 -599 0
3996 -5162 8091 0
8493 -7960 448 0
6889 8429 -7241 0
9226 6466 282 0
-6247 -6778 433 0
1078 2470 6754 0
-3069 5458 7592 0
6443 -8644 3193 0
4267 2143 -3321 0
9547 -4385 4747 0
9430 -2820 -2602 0
8120 1532 -1793 0
2466 1432 3745 0
6346 5630 3176 0
-9722 6692 -7160 0
5113 -5454 -9173 0
9832 -8676 -1605 0
-8188 -5012 -4673 0
3868 5494 800 0
3298 5854 4928 0
2642 -1621 -8296 0
9847 9163 8896 0
-4807 -6065 -7996 0
-8840 6578 6192 0
-192 4156 7493 0
-3759 6287 -7492 0
-6192 8098 -2369 0
-704 -7133 5250 0
4667 -9794 2435 0
3193 8485 -2358 0
2302 4270 8902 0
-2430 3877 -9249 0
3005 7716 9954 0
8123 -2983 -8025 0
-8185 4651 4624 0
1256 5093 440 0
-2037 6682 -3661 0
3903 6432 4381 0
3992 6864 7180 0
-8933 1712 -6134 0
1573 -6761 -5592 0
-8559 7292 -2531 0
-2517 3338 -5246 0
-8342 1706 -9950 0
7563 2631 -3783 0
2702 -9460 9916 0
-5894 -8388 -6283 0
-4291 1393 360 0
-6268 -5997 8372 0
-1111 6943 4972 0
-337 -1193 -2093 0
8727 -7538 6247 0
7217 -5188 7884 0
5798 -7488 7812 0
6111 1740 7765 0
-4677 -9012 -2844 0
1466 1236 7330 0
-6652 -9099 -3564 0
-724 8241 -6536 0
-3659 -5049 -2491 0
9165 -7547 -8059 0
4479 -445 3569 0
-5080 -7842 4039 0
9799 5372 -2300 0
9477 -1541 8998 0
-1540 -3927 6898 0
1961 5499 -3067 0
-2172 7711 2328 0
9409 9447 -5340 0
8749 -9154 2181 0
6050 -4477 -333 0
-5811 7072 1726 0
-9094 -8891 1173 0
-975 -8233 8216 0
-2312 -1375 -302 0
8613 347 -9219 0
4274 5368 1076 0
5725 9274 4029 0
-7973 -8546 4707 0
-7005 6766 -8433 0
-4149 -9814 549 0
-3590 4307 5602 0
-8999 -7885 -8115 0
5701 4014 -5644 0
-9517 2743 -3525 0
3103 -7907 -9742 0
-5445 -5142 -5610 0
8301 1769 -820 0
4821 3422 7829 0
-6845 -6249 8822 0
-1067 -7952 4607 0
-9302 -2725 7464 0
9266 1867 2866 0
-5873 -8689 -5287 0
-455 -3318 -941 0
1037 -5641 9491 0
-1511 676 -7483 0
-8293 -5506 -9715 0
-674 7844 4988 0
-8466 99 2195 0
6394 -3372 -7965 0
-2756 -4325 4888 0
-9296 7952 -5765 0
-2322 -9403 -2108 0
-672 -6107 5074 0
-5755 -7779 -9069 0
-7904 6349 4576 0
-3728 -6155 -6518 0
7601 -8595 9468 0
5853 3691 -6826 0
-9870 -1850 4897 0
5319 -9415 4953 0
3341 -2294 9782 0
-4554 -1092 -9247 0
479 6606 8255 0
-3698 -5821 -9583 0
9998 -9784 5758 0
-3811 6539 -8184 0
8840 2286 9973 0
-663 -96 -1114 0
9804 3740 2875 0
1418 7365 -8986 0
2329 -9172 -9369 0
8262 419 -9493 0
-4575 217 9345 0
-9523 6713 5878 0
-9977 -2596 -159 0
8019 -8295 8654 0
-2983 -9174 -3334 0
-4448 -3653 -5595 0
-8398 8522 -5348 0
7434 6645 -8757 0
-9133 8643 -1956 0
1161 -3981 -377 0
2748 2659 -3918 0
-4919 1066 -1903 0
-4269 -2277 -3751 0
5118 5372 -2376 0
5437 3044 -9629 0
7863 -4774 -4920 0
-4565 -5329 3448 0
-8364 -9452 563 0
-860 -4528 -6721 0
-5353 -2931 6606 0
-5575 -7520 -9527 0
-1310 4588 2741 0
5177 -1112 2346 0
2466 7499 -3923 0
7005 1981 5215 0
-4197 5813 720 0
-7934 6545 -9758 0
4420 4323 2022 0
8568 -3289 -1704 0
-610 7513 4511 0
-1571 -9753 -6555 0
7823 1131 -8888 0
2721 -3724 -3121 0
5970 -6237 -7774 0
3286 1940 -3549 0
686 -7161 3413 0
7691 -1788 -9523 0
-6061 -1296 -6137 0
-3568 5353 -6901 0
1701 8503 -7520 0
1903 7214 5396 0
-8857 5177 731 0
6165 -2560 4811 0
2314 7406 -281 0
285 -2409 5250 0
-5917 -4404 4197 0
-2790 1401 6332 0
4897 -1565 -1518 0
2773 -471 9764 0
-608 -2172 -4296 0
3744 -7642 -9218 0
159 -3099 6418 0
-7297 -9738 5423 0
2129 -4529 8713 0
3021 -6976 -9203 0
-1261 527 -1440 0
7458 -4320 -8313 0
-6385 -2370 -9594 0
-335 -9836 -3 0
-7146 -6691 7624 0
-6207 6005 4465 0
4697 3042 1066 0
-4581 8739 -1781 0
3734 -468 -8318 0
9142 1482 1366 0
-7569 4775 -8689 0
6023 69 9196 0
-4835 -3743 4476 0
-6073 -3706 -1917 0
-5665 -273 -7243 0
-2658 -2725 -9284 0
-3566 8186 -8884 0
-3472 -4938 1154 0
4943 -6670 -3915 0
-6336 1420 7071 0
-1883 -392 3240 0
8101 2315 -6387 0
6739 2841 -9778 0
2290 3858 -4724 0
-2681 1569 -8322 0
-2525 -7844 -8780 0
-5979 4174 5599 0
-3187 8702 5171 0
-6224 5645 -6660 0
-4955 6288 2312 0
7764 1144 -3251 0
-1156 -8404 8119 0
5169 609 1499 0
-7395 -9634 5057 0
9681 3653 -6303 0
5908 -6690 -9753 0
-8998 -9220 3944 0
4447 4152 -3156 0
-3807 720 -8642 0
-988 80 6273 0
-6890 -5330 8691 0
-8001 -9049 2398 0
-5816 -8553 2391 0
-4158 9035 9625 0
9511 -4918 514 0
7098 1675 6925 0
-7493 6425 -1373 0
-4072 5113 4570 0
5387 4203 -4478 0
2497 -9515 -1517 0
-7078 -1843 7877 0
-4803 376 -3380 0
-1159 3955 -1633 0
1457 915 1576 0
-1511 -6829 8532 0
-2124 6968 1676 0
-6416 7821 -9750 0
-533 2644 -7065 0
3353 5127 5815 0
-7815 -5760 5832 0
-9322 7906 855 0
2467 7115 -2916 0
3296 -4859 -313 0
-588 -2491 9459 0
4262 -192 2757 0
5076 6779 3471 0
7124 -1131 8039 0
3138 -2348 -9164 0
-1563 -880 7561 0
-1930 1061 -5211 0
-1300 3634 -5543 0
1419 -4728 -2014 0
7615 -3660 -3058 0
-5430 -7222 9703 0
-1378 -5621 -1943 0
7145 6702 -3919 0
9095 -7583 -8644 0
-7461 -3432 484 0
772 -5181 -954 0
-4415 2452 -5576 0
-5182 2100 5585 0
-8220 5513 -3649 0
-7054 -2435 -682 0
7646 -6988 -5083 0
1508 8435 -2113 0
4259 381 -5916 0
3971 3400 -3350 0
-8666 7555 -1364 0
1649 6542 -8928 0
-2912 8484 -3961 0
-7882 -8862 7657 0
-8855 500 4281 0
-148 6126 -4784 0
5006 -4808 7125 0
4981 3782 7767 0
8038 -5531 3693 0
-2271 467 -1816 0
-2370 -5089 7549 0
8494 -8821 2820 0
4847 -5460 6136 0
8267 3887 7779 0
-5926 -6390 -4299 0
-6322 3076 -5653 0
-2030 3659 204 0
-2165 5168 9814 0
-4420 -5410 1520 0
-6636 7736 -8583 0
-7217 -6077 4088 0
-6468 6630 -5390 0
-3684 -7602 -766 0
3293 6056 6712 0
9172 -3928 1457 0
3387 -4351 3502 0
1411 -4797 -1339 0
4664 6341 -4614 0
-6983 3405 8745 0
-573 718 3813 0
7410 4613 551 0
-7162 1247 -1519 0
618 7998 9229 0
9692 823 -6754 0
-6391 3624 -3748 0
-7223 -2942 158 0
-185 2898 9190 0
4676 -8160 -2763 0
9476 2494 -9137 0
-4499 374 656 0
-7916 -6056 -5748 0
2454 -2511 -5012 0
-8886 2154 7309 0
8507 -6349 2494 0
-9894 9880 -7190 0
360 -1133 -7319 0
-2099 -3074 348 0
-9580 -4224 -3980 0
-9311 4042 4433 0
-7362 -7105 4847 0
-5039 6230 3043 0
2895 -6159 1457 0
-3990 273 6667 0
427 3724 -1296 0
4456 8246 2094 0
4253 9915 -9849 0
6408 -4945 7474 0
-8118 4343 -5971 0
2175 3765 496 0
7000 -4743 8884 0
-9281 1329 -2362 0
-2988 606 5315 0
-5470 -6309 3887 0
2747 -1319 9826 0
-8 -8841 -8079 0
-9708 -3746 4149 0
3541 2102 -7378 0
-798 2585 82 0
7056 1224 9043 0
-3600 896 -1801 0
-4254 1985 -691 0
9638 -7589 -4324 0
-6473 -766 -5523 0
9719 -5315 -5325 0
-4141 -5847 7063 0
1956 -7604 4952 0
-6906 -3236 4065 0
-7214 7732 -7426 0
-5036 -7000 -6223 0
-1734 1347 6174 0
6878 -4054 -4993 0
4058 6011 8693 0
9905 -9771 161 0
1673 -9112 -8220 0
5834 -4089 -3925 0
4991 568 9419 0
1282 7133 -6782 0
6221 -1300 -1750 0
9584 -3927 7269 0
4177 780 837 0
-6256 2223 -771 0
7910 2391 6320 0
6022 -9224 -9575 0
362 -5570 -2701 0
7588 7360 5192 0
5984 -4974 -4626 0
1415 -5492 -2972 0
9978 -8567 8812 0
5025 6302 -5603 0
-533 -2723 9318 0
6647 -9490 -6940 0
-7711 -8085 4188 0
6362 9620 -4125 0
-4061 -7227 3458 0
-7158 8531 2644 0
-3859 -3328 3957 0
-7052 -8700 4103 0
8976 -5107 2521 0
9196 7946 5613 0
-6828 -888 -9098 0
401 2865 4226 0
-8669 -2233 -6896 0
7915 9219 9475 0
9394 2891 -9809 0
-1974 -1484 6684 0
-2194 733 658 0
2731 9096 -9090 0
-9198 -8113 2536 0
-1779 7503 8874 0
5463 9575 -2247 0
-4188 9373 -439 0
1135 -6673 -3530 0
6229 -2592 4840 0
22 -1882 -7101 0
5606 -1413 -3279 0
-6300 456 5415 0
-223 -5590 -7194 0
-4234 -5112 -1988 0
-657 -1308 774 0
8977 4235 1344 0
8597 -9074 6759 0
-7702 -2815 -2230 0
8512 9618 -3792 0
-9680 -7396 9883 0
3868 8994 -2824 0
-8827 -8204 -5669 0
-3250 -3202 5717 0
3067 8632 2454 0
6547 4426 8966 0
-9189 7802 2198 0
4464 -7314 6798 0
4660 2401 9372 0
-708 -8628 -2314 0
-842 7822 9401 0
-142 5458 -4745 0
-8304 -9626 -2054 0
6456 -6880 -5819 0
5294 -2942 9551 0
-3037 -3663 -1204 0
-188 -4943 9626 0
1151 2812 -9930 0
-382 4102 -4702 0
2623 4575 1864 0
9717 5722 5844 0
4656 4987 8618 0
707 9873 2981 0
1955 -5984 8743 0
4930 -199 5083 0
-3621 -3601 -1040 0
-9938 -1837 -7325 0
1985 4878 5083 0
4029 -6241 -2712 0
-7188 2982 -8450 0
3167 -2182 48 0
-3781 7678 654 0
2665 -460 8076 0
7248 -3067 -9055 0
-5709 9626 1980 0
-976 -8943 -159 0
-2507 -9983 -7001 0
1302 -743 -2833 0
-5764 -6627 -3052 0
5401 -8879 5670 0
-9491 -272 2647 0
2577 6996 -5630 0
-9200 -9383 -2603 0
7500 -1895 -1878 0
-387 -7583 -1840 0
8117 9901 8513 0
408 7888 -7978 0
-7203 -1709 -9117 0
-1750 -5180 5253 0
-2585 -1776 -2635 0
2888 6950 -8353 0
-2321 9535 -7477 0
-2244 2901 -96 0
-3037 7917 -1320 0
-8736 7396 9211 0
1226 -8128 64 0
-1048 9899 -9253 0
5568 -5351 2809 0
-3411 6126 3585 0
-7525 -7742 4798 0
-6631 8395 4058 0
3603 7553 8539 0
3778 -4844 7414 0
6998 -3978 -2719 0
-3038 -4489 -4680 0
-5586 -6021 -2172 0
7689 -2824 7077 0
7890 -4932 9138 0
-1633 -8498 -546 0
3175 -1620 264 0
5490 -5953 5602 0
4487 5782 4653 0
-5709 -2156 -9902 0
3388 9707 6056 0
-180 -2369 5403 0
-1172 -3566 5951 0
2595 -437 -8381 0
1782 254 2674 0
9420 -2944 387 0
-8957 2411 -9223 0
5451 -3374 -2671 0
-3800 4617 -3407 0
5218 -3608 -6019 0
3662 6309 -6334 0
2287 6523 -2601 0
706 -4816 5563 0
1655 629 -9854 0
5071 -9301 -6192 0
22 -5247 -4515 0
-7337 -1595 3359 0
-6211 5572 1761 0
7156 6130 1713 0
-8322 1346 -8147 0
-5818 7487 9461 0
2815 2996 -6683 0
-368 -1765 2194 0
5168 5401 -8753 0
2124 -4772 6285 0
4641 8021 4838 0
640 -1127 9005 0
-3430 -7047 -3927 0
2323 -6693 -1567 0
-7994 2828 3334 0
-1512 3272 8024 0
946 1675 2546 0
-791 -1346 -1565 0
-6125 2678 -6651 0
-2607 3212 5885 0
314 -3928 5439 0
-4939 3756 7929 0
-1901 2071 -9379 0
5190 -1190 -5724 0
-7180 3789 9271 0
-6198 102 8008 0
-4036 -185 2849 0
1153 5264 -9850 0
8186 733 7321 0
6146 1864 -5715 0
763 -1795 9963 0
3518 -5737 5151 0
-6464 7345 8429 0
7602 -5463 -7497 0
-1585 9171 -8712 0
-551 -9441 -1567 0
-6985 6436 -9680 0
579 3935 -5689 0
-1415 7270 -4344 0
8674 -9599 5763 0
-6674 -985 6956 0
5586 1690 5602 0
-7352 -3486 6089 0
-2897 -8747 7991 0
2650 -4118 -8274 0
902 -7625 -4519 0
5190 -1465 4838 0
518 9622 -5188 0
-9677 5127 3232 0
-2456 -5561 -4701 0
4837 144 1982 0
-2329 5223 351 0
-2818 3520 -8558 0
-5542 7494 104 0
-4086 -5220 9435 0
1320 4315 1064 0
9210 -3783 6121 0
-7974 1336 -1252 0
-5862 -9135 -6778 0
722 -8785 -3029 0
3910 -2272 -4623 0
84 3317 4081 0
7717 5432 -1713 0
5643 9387 3104 0
-7949 3921 -9334 0
-2428 -9778 -5331 0
-4279 2247 6713 0
-8312 -5537 8254 0
5756 -197 -3234 0
-6412 -1544 40 0
5926 -7837 -6061 0
-9818 4235 1887 0
-8114 5155 -9335 0
-7163 6032 4961 0
-6747 9516 -9221 0
-7345 3232 -6961 0
-2994 3982 -3687 0
-6959 8044 -3800 0
-7536 3151 4321 0
-4474 -5784 -9778 0
3415 370 4794 0
-7657 2807 2249 0
-1375 4820 2982 0
8663 -8767 5352 0
-1890 5067 -1715 0
-4892 8249 1204 0
4798 745 9359 0
8976 -1732 2651 0
-9296 -6758 5983 0
2868 -8732 -7876 0
5140 95 4079 0
8932 5043 -2809 0
-4328 1222 7045 0
9191 1813 1894 0
-8022 -3691 -2704 0
-6968 7046 -5539 0
6419 9296 -632 0
-1028 -848 -5251 0
-1987 -401 -5361 0
-197 1283 -5476 0
-6136 -9568 -4050 0
-6852 -6575 -3584 0
5220 3471 -5022 0
4674 491 -3052 0
-3019 -6613 -2766 0
4138 -1883 -8366 0
-338 -6470 1074 0
-6125 -2470 -1509 0
-8158 -8215 669 0
-9993 -3297 -8273 0
4695 3696 8446 0
-8013 2540 2854 0
3079 4820 -1042 0
5610 -4893 8378 0
7667 9017 -8271 0
5943 7592 1012 0
-8558 -8032 1358 0
3201 3559 7622 0
9425 -5760 190 0
2402 6887 -5946 0
-4834 -2337 -8788 0
2283 253 215 0
-1578 5222 1452 0
4231 9327 -7145 0
-7705 -4761 -1158 0
-9279 8753 -5796 0
-5730 107 3784 0
-1010 -1480 -8972 0
-673 7448 9163 0
161 -16 5487 0
-3698 5378 -2933 0
-4122 2166 9657 0
6853 -6403 -9059 0
9388 4499 573 0
2711 5918 5469 0
-4707 -5240 -479 0
729 6618 298 0
-1554 -8242 4115 0
-3488 1285 -2460 0
9258 1083 -2942 0
1162 1795 5929 0
-875 2729 -782 0
7022 7616 6339 0
-6572 -1454 -5338 0
-8653 1809 -8205 0
-979 -1333 8927 0
3848 -6856 -4693 0
5138 -2216 -9804 0
-3498 -1495 8529 0
8370 1147 -1254 0
-1279 -3948 435 0
7395 8224 -548 0
3460 2986 -1244 0
6452 -6295 9371 0
-8141 7802 -5759 0
-1795 -6534 2364 0
7590 -668 6385 0
-3389 -6987 7329 0
1994 -5552 2059 0
4696 -8905 4715 0
-7898 -397 -7810 0
-6903 5694 -2982 0
7237 1568 -8357 0
5753 3795 5231 0
-747 -9368 -7364 0
5570 -1646 9318 0
9112 7379 5383 0
4362 -3900 4053 0
-1091 -1831 3512 0
8893 -6839 -729 0
1130 3581 -882 0
-1496 -184 -4622 0
6408 -6915 1287 0
-9740 -3380 7309 0
5398 6292 -6503 0
1766 -1001 -1694 0
-4641 -1291 3170 0
-4304 9937 2907 0
9755 2918 -3525 0
-1558 6694 -3803 0
7995 -5102 -4492 0
1561 -3456 3576 0
1403 -5617 -7588 0
-9788 2843 6160 0
9096 4261 4030 0
9420 7275 205 0
-5399 -8580 -4320 0
6673 -3501 449 0
-1262 -3405 -7550 0
6520 8463 -1329 0
1560 -7868 720 0
-6455 -6738 -518 0
-2698 4273 7468 0
2912 -3834 -1592 0
2724 352 -9663 0
-178 -2331 115 0
-2599 -1733 1840 0
8715 -4358 6843 0
-4643 -8623 8932 0
-9356 1746 -5739 0
-1965 9294 -5843 0
9423 8766 -4651 0
105 -2824 7155 0
4239 7406 9956 0
3439 7786 2406 0
4822 -5076 1875 0
6257 6812 -4006 0
-2207 408 2937 0
-5118 -2854 -2812 0
-1713 -4180 -6063 0
7535 -1457 -5775 0
5029 -7939 -5822 0
-9514 -9296 9914 0
1213 -8329 3372 0
9177 -6060 1895 0
4915 -3509 2847 0
-7715 229 8456 0
-8019 8842 7441 0
1 3854 -2316 0
-2135 4827 -5403 0
7723 -5904 9347 0
589 -2197 6023 0
3952 8192 2650 0
-8920 6633 -173 0
-8007 -9401 -2713 0
-9114 233 -4030 0
2610 8386 4869 0
-3117 1337 4336 0
9554 -8119 8046 0
1391 6830 7912 0
874 1899 -1458 0
5242 698 7806 0
-17 -3336 5383 0
2885 -6000 -6580 0
1469 -569 -697 0
435 6172 -3726 0
-2807 -7709 -645 0
5053 7452 2187 0
8922 -2335 6044 0
9994 -9391 946 0
-1123 -2971 -5594 0
-1038 -4727 -2018 0
-2719 8171 6554 0
-3156 9419 -6565 0
8002 -7722 4902 0
4219 7884 -6910 0
-7103 -2912 -7153 0
7625 8840 6358 0
4627 -3263 4016 0
-8808 5241 -3614 0
6319 3898 3894 0
-4370 -7557 8068 0
8593 862 5512 0
3419 9497 -7670 0
-9935 -1415 -4492 0
-1249 608 -2870 0
9601 2497 -7585 0
8214 -9265 1510 0
4164 -1438 1173 0
762 -78 -5122 0
4498 6363 -3178 0
-5945 -8296 -9302 0
-4268 -3041 2629 0
6379 -9280 5838 0
-9304 114 283 0
7833 -2839 -6611 0
1621 -368 2508 0
569 -2255 8730 0
-3100 -7164 431 0
8640 -5229 3132 0
-3121 8559 3351 0
-9891 6323 -160 0
6124 -8505 5545 0
2957 7329 -7960 0
-1460 -3964 8133 0
-7284 6143 -8981 0
4596 -3135 4996 0
1108 -8693 -7455 0
-570 -446 3545 0
-9027 -9302 -6652 0
1110 -2005 6044 0
-9237 -8830 5145 0
8156 3087 3252 0
4400 1156 -9859 0
2327 -4621 -6747 0
-9515 -6742 -1109 0
8939 5843 -2367 0
7941 -3052 9633 0
-6394 5210 4775 0
7138 -3963 -6310 0
-411 -2395 8301 0
2405 5116 -8642 0
8539 -3173 1149 0
-4255 -2421 6407 0
3605 -5782 4795 0
9518 -6220 -9618 0
1104 803 5644 0
9217 7168 8698 0
-2886 6281 5485 0
8035 4430 889 0
-4157 1930 -9809 0
-3499 5266 -8675 0
-2169 13 -1448 0
7207 8981 -8771 0
7482 2739 -5363 0
-1171 -92 5516 0
2428 6319 164 0
-2281 -7477 4245 0
2455 5113 6533 0
7771 -5758 -5604 0
6498 -7048 487 0
-8255 5736 -2842 0
624 -3727 -2076 0
-913 8081 -7794 0
2822 -3599 1161 0
9554 7242 -6473 0
-6664 968 1893 0
573 3524 8345 0
2551 -4425 6469 0
6268 3513 2960 0
9135 -2123 9710 0
-4669 3973 8355 0
2901 7073 -5843 0
6013 -9185 3149 0
-1666 -8696 5404 0
-2745 5387 9176 0
1488 8153 -7825 0
-1095 -8921 -9627 0
2290 7053 -7428 0
6771 6344 -6487 0
-5070 8338 -1996 0
-1354 3864 -9080 0
8122 -6326 7671 0
-7984 4633 1636 0
-36 -4033 -4455 0
9749 1581 3845 0
-8158 -9606 -9699 0
6219 -3829 1878 0
1175 -5755 -3925 0
-5423 -5520 7515 0
-2238 992 5502 0
-5652 2814 8293 0
-2993 5698 5444 0
684 3946 -7889 0
-213 3399 -1655 0
2116 1237 -91 0
4395 -1354 2426 0
9306 2444 -9209 0
-1443 -6003 7230 0
-6244 -4019 2887 0
7401 -2526 -9505 0
-1919 -3246 -8536 0
9993 -322 -7204 0
2483 -8154 -9645 0
8561 9188 -8238 0
1618 -2666 6731 0
6521 2585 8347 0
-9104 -3462 7244 0
7427 -4807 -8148 0
-458 1528 9333 0
-7130 -3874 4689 0
7840 7571 -329 0
-4231 -7456 -9656 0
-6419 -5887 8509 0
8096 5253 8111 0
2407 3882 -4827 0
8661 -6957 -3901 0
-5986 -4215 -5017 0
5388 -9203 -5390 0
8989 3300 1764 0
-3900 5690 -7421 0
-4442 4914 7659 0
371 -1351 8258 0
-7976 -4802 -9239 0
-5901 -2985 -2057 0
-3410 8488 1716 0
-5999 7004 -8540 0
6180 4891 -3375 0
5357 9770 1202 0
-1009 -8639 -4858 0
2539 -6130 712 0
4826 -4467 -8331 0
2833 -6505 5705 0
5267 -1782 -7613 0
49 7767 6296 0
-2774 -6636 -8643 0
6658 6985 -1742 0
-251 6933 962 0
5202 9888 -6014 0
-3522 5042 -2406 0
-2728 6492 -4167 0
9526 1492 -402 0
1238 8084 -1435 0
9059 1090 -5782 0
5652 6670 3653 0
8548 -1592 -1783 0
3901 8111 9736 0
5964 -3559 -7919 0
-7931 3539 -3183 0
-8209 -5733 -5909 0
-3362 8364 6816 0
-4379 8039 -379 0
-7028 -7750 9845 0
3701 -4112 5312 0
4265 -6125 8798 0
-3193 -9039 -4079 0
-5664 3139 7633 0
7611 7209 403 0
-1756 3067 5407 0
7828 8820 -8436 0
-3283 -3190 3046 0
-4576 8390 -17 0
-4068 -7746 9748 0
4882 -7932 -3087 0
-4107 9464 752 0
4574 -1341 9874 0
-2986 -6450 9203 0
7147 -2201 -7854 0
-2739 -9846 5932 0
-4149 -8516 1430 0
5020 5818 -6847 0
4757 9179 5015 0
4621 -8755 -1130 0
-5756 -5255 -8297 0
3850 5605 6556 0
-2715 -3070 -6254 0
-3966 8158 3006 0
-160 -104 3202 0
6133 5440 -8538 0
-7103 5423 -6710 0
-9840 -451 -7818 0
-6244 2259 2955 0
-3178 7927 -4273 0
-5030 -3659 5496 0
1366 8176 7160 0
4522 1769 -6429 0
-1608 -5355 -694 0
3626 -302 9234 0
-4821 1408 5062 0
2207 -9735 -9613 0
-6471 1983 -6074 0
-1071 -472 5183 0
7381 -5486 9901 0
3248 -1951 8889 0
2969 8767 -5360 0
8704 -2622 -8717 0
-4443 3976 -1119 0
-4270 -9189 -4165 0
3803 -7490 -5328 0
-2447 -3146 -3695 0
-3945 7434 -1332 0
4962 -9192 7621 0
-1517 -6708 2973 0
-8898 1271 3498 0
4857 -887 -9778 0
-2275 -5835 -9822 0
7802 -6188 -5492 0
7408 7983 2360 0
5623 8881 -9569 0
-9131 1313 -2970 0
1017 -4939 4226 0
-8407 -385 4682 0
6378 -3939 8937 0
6722 -6232 -5769 0
-1702 7599 -153 0
7054 -9206 -2843 0
-7642 5640 -4327 0
-5238 -704 -2490 0
5886 -3985 -5103 0
-1618 3127 -9533 0
-2588 7996 -8472 0
-6374 8797 200 0
-3881 3480 -9310 0
-3370 5133 6978 0
-3948 4428 4521 0
6681 2763 -5728 0
-7581 -5527 -5584 0
8280 8810 5566 0
-2142 7492 -10 0
8953 -4507 -9674 0
9432 5637 6974 0
-860 6945 6283 0
9161 607 -4853 0
1007 3521 -774 0
6734 3947 7955 0
-8058 9258 9449 0
7220 3892 -2213 0
8561 8300 7174 0
8101 -82 8682 0
-8828 -4510 852 0
-1488 6562 1364 0
5190 -8524 2546 0
8625 -8004 9749 0
-9174 -6186 -9075 0
-1185 -1099 513 0
8060 1897 -667 0
-8293 8195 -5660 0
7156 5454 -6350 0
705 -792 8489 0
9145 5606 2124 0
2045 -9745 2201 0
5943 -477 1094 0
-7477 -4088 4472 0
8305 -176 7971 0
-3221 -8848 -6461 0
-906 6381 1743 0
5163 -7062 2689 0
-4545 7919 -785 0
-7231 310 -8456 0
-2837 -8654 -5331 0
-5418 -5019 -2232 0
-8324 -103 354 0
2684 -9130 5114 0
-7479 1127 6121 0
7967 -9087 8601 0
-4645 9106 -7734 0
1673 -8239 486 0
-5446 -8310 -153 0
-9414 -6367 -7029 0
-1725 -7886 5745 0
4678 8124 -8410 0
-1463 -2166 -1501 0
-5991 9220 2415 0
-3381 132 -8726 0
8264 -4182 -7180 0
-4034 -4886 -4382 0
-4256 -6146 3865 0
-5820 -1878 5621 0
-7152 -8729 -187 0
9567 4759 -6933 0
5440 8225 -4389 0
6418 -4599 -9035 0
-9313 -4989 -5216 0
3220 -6040 -6375 0
-1456 -8960 -6323 0
-3907 -1078 -6079 0
-8591 -9072 546 0
-5079 6177 -4727 0
2121 -3952 5867 0
-8694 8818 -626 0
-6572 -4411 3127 0
-2776 7861 1540 0
-244 5483 2450 0
-1481 1236 -6466 0
-1455 8272 8152 0
-280 -5832 3755 0
5871 -3701 -7852 0
2483 -3326 2878 0
-5984 -2267 -7417 0
1774 4731 8662 0
-7675 400 -9365 0
5642 -9590 -121 0
5364 7408 95 0
2091 -3980 4381 0
2139 -8093 -4202 0
-6969 -8150 1136 0
5105 9348 -3652 0
7617 7579 5389 0
1434 -2643 -86 0
-5191 -2253 -3050 0
-8020 -8170 7808 0
158 3273 -9519 0
-2051 -4420 -6278 0
-721 1448 -6098 0
-4359 1941 -1533 0
5259 5629 5228 0
-1331 -9155 7942 0
-3756 -4032 1791 0
-4964 -5176 6500 0
5656 -5791 -6850 0
-7870 -9631 5027 0
-272 -305 6213 0
-5112 -8702 2845 0
4554 -9238 1781 0
1024 2699 2136 0
-7102 9340 -8271 0
-3284 3061 5006 0
6843 -1148 9881 0
-5451 -8411 8478 0
-4386 -5581 -5325 0
-6999 -464 7493 0
-2815 -3656 -6378 0
-3473 -4642 6342 0
215 -5519 478 0
-7551 5241 7087 0
8600 -2250 9018 0
-6772 -7705 1513 0
452 -6807 -7678 0
3963 -4928 6137 0
8585 164 -6767 0
-3267 6151 9238 0
-7173 -8112 -6139 0
-6584 3543 -1161 0
-7263 -1721 5037 0
3296 -4082 -9743 0
-1322 -9584 -3924 0
-2871 392 -8709 0
-7133 1159 3603 0
3069 -2225 7271 0
7084 4029 702 0
478 3683 232 0
1141 2173 7097 0
8318 1251 1398 0
-6565 -2534 -6656 0
7928 5317 7339 0
1755 4697 -9481 0
-2481 212 3901 0
8066 -138 -6018 0
8181 7624 -5661 0
7726 9618 2736 0
-1392 4839 2115 0
6929 7201 5770 0
2002 -8722 -6826 0
-4482 -9261 8338 0
8267 8726 7895 0
2838 -6461 -9857 0
-8934 -8049 -5219 0
-2741 8621 7019 0
9831 872 5994 0
-2164 8315 -6597 0
6634 2219 5223 0
2916 -7074 -8436 0
-6180 951 4768 0
-7582 -9747 -8572 0
-7792 248 -304 0
-4262 -7780 -4106 0
-5431 1517 -7647 0
-5552 8892 4921 0
-468 -3206 9846 0
-6045 5782 -3918 0
3077 4670 -7247 0
7297 -388 5865 0
-8745 2590 -2095 0
-7000 -3991 3736 0
6145 5560 -2716 0
-4109 2579 -6797 0
638 4200 6818 0
7583 -6371 -3403 0
-2029 1672 6951 0
-5189 -9908 2046 0
-527 -9401 -1090 0
5507 8056 4598 0
7883 -8697 -2293 0
6334 -9432 8738 0
8227 2838 -8053 0
8738 1551 -9717 0
-2558 9799 8345 0
-4373 -1730 -655 0
3680 -3038 -227 0
-338 8957 -8523 0
5381 4176 6998 0
-2762 3036 -1948 0
8294 -4914 9269 0
-2583 -8657 984 0
-177 2448 6470 0
1270 2315 -4230 0
1971 -4491 4570 0
-5325 -3913 -365 0
-8670 -8910 -8124 0
1692 -2325 3977 0
-1648 -5017 955 0
-5133 9483 -1753 0
-1490 7366 1954 0
-6767 -7773 -1926 0
61 2386 -4021 0
-195 6621 -7061 0
9178 -194 -2544 0
7633 3409 -9157 0
-1405 3018 4669 0
8665 -602 -2667 0
2886 6016 5337 0
-5835 -8640 7806 0
-1379 -9290 707 0
610 4244 8570 0
5295 -1120 -4734 0
5685 -9105 -4508 0
7012 -138 -1006 0
8233 2423 -9894 0
7331 513 -6840 0
-2838 7992 -2771 0
-7293 -5998 9682 0
-1265 5863 2091 0
2560 4464 -4531 0
3768 -9194 -123 0
-6580 2286 1113 0
-1919 -6105 1069 0
7208 4550 -3785 0
-3856 -471 -5335 0
-7349 367 4374 0
1032 5582 -7333 0
-1429 -8258 -9302 0
-1683 8588 -4544 0
-3086 1830 6000 0
6229 -7688 -4303 0
9295 -3848 -7057 0
9128 -4399 -8650 0
1832 896 -5418 0
4016 5514 -9660 0
4705 -6664 7392 0
2919 -8966 -3741 0
-2264 -6985 -1740 0
4614 -5108 -3919 0
3952 9976 -4951 0
494 3362 -7970 0
-7407 9867 -1667 0
-1311 -3563 -4613 0
-3516 -4425 1101 0
-7705 -1347 -4811 0
-4583 -838 939 0
-4495 -9324 -4 0
5594 -9218 -796 0
781 6876 6738 0
5442 -272 3910 0
7519 5435 -261 0
3322 -6519 -3828 0
4245 5698 8577 0
-3951 -8771 -8601 0
-5403 8206 2143 0
1832 2304 7766 0
-2021 6130 -6468 0
-3724 3485 958 0
-4099 -5036 8240 0
-9833 -2318 -4019 0
5712 -8814 9149 0
5108 -3973 8596 0
-2762 -7832 7619 0
8187 9090 7059 0
-2809 -7648 7195 0
-1254 4469 -2774 0
-6121 -1240 -288 0
-1456 -6068 8033 0
1131 8684 -5759 0
-131 3819 5717 0
4129 -1571 1440 0
2807 -7375 -1953 0
-4200 6961 8997 0
3158 -9582 -3605 0
-8290 -8238 8421 0
7257 -4259 656 0
2873 5604 -5629 0
5062 6542 9145 0
-758 2113 1143 0
-4186 4172 3912 0
-1700 9477 -8790 0
-8245 -5490 -7865 0
4084 4065 6606 0
-7241 2015 -127 0
-3793 2610 -9820 0
5181 -6449 -6787 0
-7522 5506 5122 0
-6391 -9018 -4558 0
-407 6313 6154 0
5218 -9161 -5906 0
6199 -4730 103 0
4086 -869 1497 0
7774 -6203 -7344 0
-9596 -6705 -3675 0
-3107 7426 -5333 0
-905 734 6498 0
-7940 -8184 -4106 0
8281 6592 -519 0
-6477 -7226 4344 0
-2844 -1502 -2666 0
8491 6868 -4599 0
-9274 3614 1676 0
-8920 5884 4879 0
3456 4922 1633 0
-4711 -7756 9965 0
2427 -1990 -6452 0
1900 854 6839 0
8976 7032 -7323 0
6288 5245 1343 0
1217 95 1128 0
349 -6461 272 0
-9936 5595 6763 0
1190 7609 -3931 0
6275 -5780 7790 0
3525 -9500 6271 0
-2789 2823 8873 0
-9951 -6087 3939 0
-6162 7402 6220 0
-9310 -9274 -6605 0
4792 -8632 -89 0
4982 1411 9008 0
-3292 4137 -3297 0
6183 1123 5345 0
-8537 9474 -5461 0
5440 -3345 4355 0
-383 1578 -4228 0
5259 -7819 -2516 0
146 5912 -8942 0
7704 -8239 -9928 0
-1242 -864 9786 0
8977 3232 8463 0
5625 2659 -9902 0
765 9626 854 0
-1995 4164 8782 0
7154 3152 3825 0
1897 -6545 -3337 0
9421 -2841 3532 0
-677 -2429 -1550 0
-2407 -8523 2185 0
7554 5878 -2274 0
-80 -3049 8700 0
3652 -6676 7669 0
-208 8513 5165 0
-4521 -9966 -4132 0
-1824 9273 -3656 0
1574 -9864 -966 0
6998 8387 -6416 0
-1011 2494 5063 0
-7741 5274 7119 0
3077 -9544 -3903 0
-5297 9616 -5968 0
-5043 -5025 4689 0
-5653 759 -882 0
2398 1455 5118 0
-4931 -3472 9550 0
6497 2087 -7282 0
-46 -5366 -8627 0
-4932 -2776 3352 0
6681 -1259 -8291 0
-4356 -5624 -8722 0
-8147 9762 6688 0
-1865 5920 -5635 0
-2926 -9812 -8034 0
7262 5840 2628 0
-4697 8337 8406 0
-845 -3664 564 0
570 -6983 1050 0
-1138 8332 -7358 0
425 1195 -9530 0
4356 4737 7019 0
-5170 8888 -2172 0
5933 -2108 9643 0
-1653 805 -4663 0
6850 9062 9644 0
-6875 4624 1376 0
-2099 9214 7136 0
2071 -7146 7797 0
3534 6906 -4803 0
9808 9705 -2503 0
-9074 8907 9647 0
-2476 -6779 5335 0
-1269 2066 -7411 0
8060 -2281 3189 0
-8179 9887 8678 0
6786 -3084 -8151 0
4811 6798 4077 0
8003 2444 989 0
-5342 -4050 -6451 0
3201 3895 -1380 0
3949 -837 7414 0
846 -2190 197 0
-3071 -6840 411 0
6916 2633 -1863 0
-9477 -7241 -2269 0
-4281 -3960 4004 0
-9119 5321 8681 0
-1290 -450 -3835 0
-2991 3997 -2223 0
1012 -7999 3562 0
868 -3866 -3848 0
-7269 -2708 -1643 0
-2946 -4731 -3715 0
-2792 7741 -4219 0
-4166 971 3551 0
36 275 -3791 0
4099 -994 2494 0
-5833 -5388 -5164 0
-3248 3357 -3820 0
4076 -9583 -3194 0
-7152 -2486 135 0
-190 7937 -8055 0
8838 7404 5246 0
9935 -9098 5935 0
5843 7138 -1989 0
695 -2062 -7079 0
-4827 -5632 450 0
6133 -31 3261 0
-1279 6319 -4743 0
1064 -550 -7514 0
-7162 3106 -8535 0
3884 -3070 -5984 0
-8254 -9412 -4577 0
6360 1380 -2458 0
-9608 -6803 114 0
-9380 -1000 8792 0
-3845 -7548 9333 0
-2585 -3262 7225 0
5200 -8143 7079 0
-2169 -5275 -529 0
-7217 8557 -7933 0
-4952 1403 6118 0
1765 -1248 5115 0
-3576 6238 2467 0
5441 -7453 9568 0
-2872 8524 5889 0
-1120 1325 9622 0
-7964 1233 -4875 0
-8562 -3185 39 0
-9041 -8797 3477 0
-1327 -2004 -41 0
-4946 -525 184 0
2852 -1373 3222 0
7208 4926 4231 0
5713 5606 -3311 0
-1642 7038 -9395 0
-7547 8400 3640 0
-2047 -4064 -6924 0
-3363 -6326 -1041 0
-8686 8750 2270 0
1199 -257 -9578 0
3295 8439 -9036 0
1117 -461 9036 0
-3077 486 1508 0
-476 -9333 8718 0
-1647 -3964 -2753 0
6697 2892 -5260 0
4652 -878 -2836 0
3601 63 -7122 0
-1304 -6787 2570 0
-1169 -9285 1306 0
6424 -2300 -7303 0
5909 -2233 6242 0
-5788 6108 6446 0
2077 -487 -7597 0
-8404 6698 -1358 0
-6089 8112 -3866 0
-1696 9679 -7798 0
4466 9774 8095 0
5967 -7214 -3694 0
5230 8888 4038 0
1909 7331 9418 0
6115 44 7090 0
2903 8834 5265 0
8553 -5708 8244 0
-4408 1228 8667 0
5299 -737 -2831 0
8393 8015 872 0
-7964 -9883 -4750 0
3484 -6556 1679 0
-7942 -8938 -415 0
1138 3337 96 0
2181 7094 -5380 0
4751 -3297 6407 0
4893 -1503 4738 0
8900 2183 4349 0
-8000 -166 -7276 0
6354 -1731 5044 0
231 -1416 -1851 0
6376 7917 3285 0
-5490 6985 -7351 0
4418 9854 -8858 0
-3774 7010 -8891 0
7089 6320 -4454 0
-8223 7352 5590 0
-7767 -7258 -5297 0
4423 -9885 2064 0
3379 -5921 3677 0
-3937 -2859 -3297 0
-9416 1025 -9371 0
-7635 976 -4094 0
5009 8223 2029 0
-3370 4603 2997 0
-5518 -7458 8626 0
-6418 2314 -7549 0
820 5750 -7104 0
2522 3671 -5207 0
-8451 9049 1523 0
9173 8574 3905 0
9641 -7744 -1880 0
2171 4003 4948 0
415 -584 4933 0
9751 -1809 1922 0
-2637 5493 -3634 0
-146 -8265 2041 0
-2455 5448 -2915 0
-6851 6630 -6081 0
5952 -5341 -5560 0
8391 -3064 7129 0
3212 -6488 -4089 0
-6521 -1528 -5271 0
-6187 5436 -2225 0
63 -694 -6195 0
-3691 -2469 -6858 0
-5200 6009 -2659 0
5059 -3779 2813 0
-6720 -2301 7442 0
-67 -2127 -78 0
3622 -1912 -9695 0
3081 4180 9920 0
1825 -7049 801 0
6709 -7614 624 0
-4335 9566 -3091 0
4032 -5374 -5024 0
8086 3014 9081 0
5597 1445 -7604 0
-1062 124 -2950 0
2800 6746 -1221 0
5225 -8719 -7272 0
-315 6747 -2470 0
-4899 3710 -3115 0
4672 1165 8495 0
-766 -7057 -7508 0
2450 -6012 3909 0
-166 6172 -76 0
-6601 -3050 -9150 0
-6211 -2631 -1276 0
-6778 -4727 -9542 0
5501 -5371 3712 0
-9981 1223 3743 0
-6479 6022 -1427 0
-705 -4109 5339 0
259 -2778 -9449 0
6168 8700 -9343 0
8039 -2168 7950 0
5971 -7098 3053 0
8559 4619 -5863 0
2793 9515 -987 0
-7479 -5504 5729 0
4374 5988 5661 0
-3013 3134 5494 0
7649 8756 -4525 0
9655 -8362 6221 0
2399 -1222 -6755 0
-6133 6360 -34 0
1461 -2844 -7811 0
5488 -1255 905 0
4614 16 -9272 0
-2 -5705 6067 0
2351 -2244 9171 0
-8945 -577 -3183 0
-457 3069 -9224 0
4129 -9457 4854 0
1885 -1697 7626 0
2486 2058 -7001 0
-4027 4942 -4165 0
772 1924 6302 0
1049 -8679 2521 0
9675 -3745 4034 0
5874 -6655 3466 0
-8 -9150 -2007 0
-1230 -3458 -1555 0
-5992 -2854 -6659 0
2076 -3803 4485 0
2441 -4818 1995 0
4432 -759 -9864 0
-8724 -7267 6877 0
3268 960 -5100 0
-8868 5835 -5426 0
-6356 -3530 4371 0
30 3720 -8258 0
-2169 -5091 5270 0
-4572 1132 6865 0
-9354 9449 -1268 0
9460 -8118 2335 0
-7113 802 -6199 0
-1482 5251 -7283 0
-9518 -4542 -1349 0
3903 8759 -135 0
9834 2072 -866 0
-6544 -6863 5350 0
-128 -873 -4813 0
-1293 -9750 3382 0
3995 -7407 217 0
2544 7813 -7990 0
-2117 7387 5744 0
4293 3486 -4035 0
-6470 -3216 1910 0
-2364 8332 -6760 0
-6384 -2513 3368 0
7592 3344 -1667 0
371 1410 65 0
173 -1298 5116 0
-5072 -3958 -4368 0
-2536 2646 4768 0
-7675 -9003 6734 0
-573 8432 -8187 0
1344 9703 4764 0
-6215 4766 1641 0
1827 -1657 -4657 0
-6240 4088 5994 0
-3130 -8939 380 0
-8852 -3910 1131 0
9750 -4605 2019 0
4917 -1 -7331 0
-6246 -3507 7129 0
-5979 9981 7975 0
-244 5321 1909 0
3524 3268 4163 0
-5240 -8051 8009 0
-9279 -9777 -3363 0
-9341 -235 -8637 0
-8786 -1416 -2360 0
-1858 7612 -598 0
-2061 1895 7553 0
8439 -1992 1019 0
-9332 68 -302 0
-8171 -8209 6917 0
6187 -6824 -4206 0
-3434 215 3988 0
4222 1828 5979 0
8950 -8793 7983 0
7582 5530 6943 0
-7464 -8964 5021 0
-2485 -3726 -5408 0
-3934 6817 202 0
-9849 4805 -6675 0
-3389 9864 1541 0
9121 4312 9336 0
-8857 -6155 -4712 0
-7573 -9847 1321 0
922 -4757 8259 0
5488 3336 5104 0
-5000 -3983 125 0
1309 -6433 -9023 0
-2647 7047 5388 0
-8496 -4325 1813 0
4999 -6716 1412 0
6071 -10 1827 0
-2901 5165 1702 0
-745 -5355 -3218 0
-8319 2056 -3172 0
4569 2531 5211 0
-1972 -2181 1320 0
-147 -4303 3316 0
-6136 6766 4345 0
7590 -372 -8500 0
-1078 -5867 9934 0
5714 -2865 -4791 0
387 2156 9584 0
3898 -1656 -8237 0
9862 5271 1165 0
9849 -4981 -680 0
-1073 -5320 -3672 0
-5547 7758 7536 0
-2327 -7332 -522 0
9547 -9277 -1470 0
7137 -4741 -892 0
-3181 8836 -7679 0
4129 2337 1948 0
8620 -1156 -187 0
-6897 1257 9345 0
-8382 4171 -8069 0
6047 7755 7700 0
9533 9098 -721 0
120 -163 -3526 0
2699 -900 -1719 0
2967 -2799 2987 0
-3595 -9853 3681 0
7233 1872 -3201 0
9755 8130 8291 0
-2116 30 6357 0
-4441 6534 5900 0
-3442 -8479 6730 0
-956 -8753 3680 0
-7321 6510 -4888 0
-5347 -6235 -1285 0
7432 2733 8090 0
-8366 6928 5050 0
-9755 -4002 923 0
-6938 109 4295 0
-4294 -4510 -7821 0
-3824 1658 -5600 0
9353 -9695 -5327 0
7478 -1935 -2847 0
-6298 8040 6655 0
8924 3017 5829 0
-3038 -7777 9419 0
-9832 6742 -5867 0
7301 -1086 -9054 0
1257 7765 -6803 0
-1187 -8967 4778 0
3850 2889 -3419 0
-1157 9047 847 0
4111 -2870 9605 0
-6949 6407 -1933 0
1346 8094 -7383 0
-1985 567 6153 0
-2886 -7483 8482 0
2501 -5544 3282 0
-6019 816 4625 0
-8909 -2428 1440 0
1412 4477 1021 0
8182 2191 8849 0
6262 -3557 -6076 0
-1677 -6787 1247 0
-6455 8812 -2347 0
-9922 1862 4843 0
-6437 8352 9650 0
204 -4489 -9909 0
7776 -6086 1531 0
4153 3904 -8907 0
-4888 4222 2576 0
8194 -3838 5470 0
-155 -1823 -7641 0
236 -6636 3399 0
-3897 7573 -4405 0
2552 -1858 413 0
8047 2135 8005 0
-9018 -2363 9671 0
-3396 -5947 1700 0
-6761 -9059 1299 0
-4437 -2648 3825 0
5856 -1180 -6058 0
9444 8717 9193 0
1878 -1908 9568 0
-3530 2650 -9696 0
-8887 -7209 5523 0
-626 104 2689 0
497 -3534 3014 0
-2097 -9270 295 0
-6070 1095 5357 0
-8143 -659 9803 0
-5126 2800 -2368 0
-6794 -5421 -2195 0
6162 -2440 9017 0
8523 -6463 3539 0
1537 3916 7240 0
-1019 -5274 799 0
-1883 -5159 2048 0
2289 -9990 -4610 0
400 -2893 -4452 0
3873 -3406 235 0
3824 1770 -9508 0
2839 4235 -2361 0
-5127 -4605 845 0
-5075 3439 8400 0
9400 -3242 -8349 0
4042 -4176 -2691 0
-5007 9181 6203 0
-1681 -2640 -888 0
-1903 -3711 -8865 0
-9050 2001 7559 0
1920 -5072 9077 0
4842 9785 -9809 0
1021 2489 352 0
8691 9145 1286 0
1835 -7824 2943 0
2424 -1402 -6264 0
6800 9455 -6388 0
3211 11 3662 0
-1731 -3354 7416 0
-6245 -2997 -3457 0
8258 796 -7281 0
890 7136 2391 0
-5861 -7593 -9757 0
3543 -457 -2313 0
-2550 5983 -1181 0
4655 5792 1605 0
-2013 -6642 -1187 0
-303 3889 2624 0
9866 -2479 -1174 0
5291 4913 -1317 0
-7840 3411 -1880 0
-3622 5366 8200 0
-4517 8010 8060 0
7409 7521 -8407 0
3520 -862 -5920 0
-8369 -8664 -3278 0
3106 6083 2330 0
-9248 -1374 -436 0
-8676 -6564 -7049 0
-5492 4917 -7569 0
4284 -7951 -7167 0
-6987 5480 -4405 0
-9409 612 2035 0
-3764 -5762 2328 0
7199 -3735 -9560 0
-2056 2603 4561 0
5666 2880 5902 0
-5794 -6834 -9468 0
9007 -2113 5311 0
-9908 -2661 7695 0
8741 -1069 -654 0
3310 -7735 3133 0
-9428 6960 4152 0
7103 -7569 8534 0
-6539 8203 49 0
3345 -8464 4952 0
-7642 9735 -4455 0
-5661 9010 -2866 0
4747 -8483 -4958 0
2068 1542 -4116 0
1826 -3818 2179 0
-7873 -8278 -4546 0
9766 6432 7489 0
-8929 -9941 3352 0
1871 3780 1724 0
-4010 8769 6792 0
3009 -1960 -9219 0
-8228 -9404 3580 0
3017 -7716 525 0
-1883 9851 3271 0
3676 6581 2902 0
1732 5808 -8846 0
9380 2557 -8006 0
-8336 -1705 -16 0
-4830 9030 8366 0
482 737 1687 0
3012 9248 4935 0
9946 -5532 -562 0
5681 4290 8868 0
2009 2138 -4371 0
-8150 -2437 -1 0
4845 7132 9561 0
-7266 -2298 9539 0
-4951 5393 -5048 0
2596 1133 8873 0
-8981 -6169 9446 0
3333 9792 2338 0
-5069 8231 -8557 0
-6631 -4471 -2253 0
-7220 1910 8575 0
2549 -5422 3862 0
3729 -9872 3103 0
4981 -7506 -3905 0
2108 8695 -6274 0
2013 9752 626 0
3161 -8382 4813 0
3156 9888 -2887 0
2786 1135 -6335 0
-9592 5848 -1058 0
9164 -2889 9586 0
9105 -5375 -4977 0
2305 -1553 -4661 0
-606 -7218 7316 0
-1692 5124 2628 0
5367 -11 119 0
7277 6236 -5093 0
7183 -4596 8500 0
2258 -3372 -3665 0
-2940 -4489 2317 0
-1928 -3338 3215 0
5887 -2272 -4323 0
-3090 -83 2910 0
6902 2694 2483 0
7173 2376 -1241 0
-1774 -7244 -7358 0
-5382 3054 68 0
-8144 4577 5304 0
-5708 -775 2659 0
-5015 -2409 2449 0
-5906 -9770 -5883 0
-7110 -902 2010 0
-7354 9968 -4394 0
1862 -4832 4645 0
7036 -5093 3776 0
4493 -22 28 0
3741 -3785 -3522 0
705 6778 5399 0
1919 8001 1656 0
-6776 -2714 5102 0
-9072 -6417 -7358 0
-2248 -844 7443 0
-7809 -8000 -8610 0
3130 210 1120 0
265 -9212 -7606 0
9855 -7333 -6955 0
-7107 -1108 4615 0
-2852 1317 -893 0
197 -777 -8838 0
936 2353 -9659 0
7957 6197 -3326 0
-6935 -5022 1682 0
-5384 -9089 2232 0
639 -4040 9698 0
638 -9617 9146 0
4957 1838 2753 0
3026 -4951 8605 0
7552 3478 -3374 0
-3244 641 -9071 0
-798 -9392 -497 0
7689 6948 8581 0
-3319 -9775 4824 0
-2803 -4662 7697 0
-9229 4029 -5304 0
-4856 -5621 -7410 0
714 -2906 -8891 0
-9695 549 548 0
5086 6077 -6974 0
1141 8149 -8554 0
-902 8528 -5501 0
2649 9453 5759 0
-5235 -4914 4528 0
-498 -9440 -3130 0
2432 8365 9718 0
-676 7741 7499 0
9938 6604 7942 0
1974 3608 3489 0
-8662 6491 -7666 0
8004 -6316 2769 0
456 -7147 -8966 0
1044 -6980 -3731 0
9363 -7723 5756 0
-2979 6030 -591 0
831 7490 4583 0
-2654 6874 -3563 0
-4333 9511 7690 0
5237 9619 241 0
-4601 5835 3187 0
5555 -3085 -2205 0
1568 1972 -2282 0
-6176 6602 6201 0
2268 6303 -6512 0
4916 4321 -5031 0
9351 -819 4284 0
-9446 8140 -9626 0
-102 4060 30 0
1050 -3820 -3891 0
-8063 -6203 3852 0
-3 1790 -3440 0
2918 -2796 -8675 0
-6909 -3170 1773 0
1369 -3920 9337 0
7649 -7718 -9218 0
-4047 -6017 -1326 0
-6354 7778 8190 0
-9978 -6860 6620 0
-6882 -3669 -1827 0
7280 -4886 3998 0
-5450 767 7105 0
-4708 880 708 0
3009 8886 -8661 0
6179 -6370 -2548 0
-834 9957 -4266 0
-1927 6042 -1670 0
-6919 2032 -7295 0
2452 -697 6085 0
-4272 8126 9156 0
-3157 243 159 0
-1503 -9170 9228 0
-4786 -1843 -5382 0
8434 -3820 -1024 0
701 7354 1344 0
4362 133 5307 0
-8294 -5923 -7816 0
-2759 6455 -6873 0
-8164 5510 4909 0
1142 -9059 3885 0
8777 -739 -3190 0
7994 -9868 4186 0
-1907 -8631 -335 0
-5656 -7511 5381 0
815 -7087 -5318 0
-5588 -227 2794 0
-629 -9003 -2380 0
3226 -1418 -7539 0
2755 6458 9921 0
-5068 5062 4523 0
5840 -7130 -2115 0
-9405 2898 -4849 0
4722 -4838 -8507 0
-6148 717 9388 0
-7550 -1087 -1440 0
-6537 8838 8367 0
9823 -7157 1672 0
6133 -2759 -2751 0
-77 102 -4315 0
7177 1010 4986 0
-5705 9669 -2436 0
4589 -8099 7852 0
-6043 3404 2925 0
7323 2180 -354 0
1482 -1053 8496 0
8931 6386 -582 0
-1751 4277 -7022 0
-6909 -3344 -7982 0
-4888 6504 -2525 0
-7192 -27 -6031 0
7585 7764 -2524 0
6356 1529 -8935 0
-8866 7381 -2945 0
6430 -8904 9070 0
-4275 7972 6924 0
-2419 465 8065 0
8055 -5382 8244 0
3084 -8996 -6245 0
-1273 -5738 3834 0
7707 -779 -4035 0
-3383 -8268 -797 0
4649 -6155 -1587 0
-8773 6312 1475 0
7130 -727 -8815 0
8704 4071 -664 0
-221 8178 5080 0
2286 697 -6189 0
8547 4747 -180 0
2220 -9425 -4616 0
2419 -9631 -9750 0
-3261 9829 -8005 0
-4787 -8247 -5152 0
9387 3825 -2305 0
-713 -6841 4555 0
9547 -8305 2395 0
5892 1338 -9881 0
-8405 -1249 4989 0
4535 1237 9597 0
9793 -3630 655 0
-1369 9356 -5344 0
6330 -7832 9609 0
-6396 3613 -9862 0
1413 4822 -5384 0
5555 -6901 -3478 0
8624 2838 -3488 0
6399 -2390 -3012 0
6897 1785 -7004 0
-4103 5188 -9461 0
1479 7847 -7184 0
-87 4231 9423 0
6762 -8089 -172 0
6003 149 -8695 0
-7755 2092 3886 0
6411 7519 -227 0
-2433 -7620 4475 0
-6214 8602 -5252 0
-6881 -9765 -6624 0
5176 -9300 -638 0
-7906 9668 -3492 0
-94 3885 2057 0
-1941 4348 5539 0
2369 4714 790 0
4106 -5672 3231 0
-3516 -2139 2028 0
4138 2353 4268 0
-2527 -4309 431 0
5037 -575 6354 0
786 6121 -4666 0
2643 7800 -5809 0
-2887 -3227 -6671 0
-2177 -8530 -2940 0
-5724 -8889 4104 0
8471 -4335 4277 0
7429 3541 3124 0
-8807 -544 -4951 0
6133 -6953 6688 0
8631 1121 5650 0
-7686 7031 7835 0
5321 2772 -3292 0
-3616 -38 -410 0
126 7657 6819 0
2462 9602 7535 0
-8551 -3784 -4540 0
4412 5065 9106 0
3216 -3339 5892 0
5312 -2073 -8419 0
9619 -1796 4884 0
1951 -7363 -9858 0
8544 6141 4645 0
-1252 8915 -4259 0
-8078 -2873 -8109 0
-9856 3763 5583 0
3129 878 3662 0
8402 7059 2919 0
-4536 -5308 1676 0
-481 -3719 887 0
1021 -4442 5961 0
9104 -3289 -4492 0
-7064 6247 9159 0
5325 -4256 2078 0
6445 -2106 -3454 0
-6514 8566 -7977 0
-4818 -893 3555 0
-5886 1023 -1382 0
-9169 -6676 -952 0
8869 1891 3343 0
8372 6362 5626 0
-1224 2826 7926 0
-4251 -3370 -3253 0
5466 4116 -4369 0
2374 6600 1507 0
-7835 2452 3451 0
7806 -1050 2955 0
7446 4491 1642 0
-1588 -692 7367 0
-9537 9704 -8493 0
-2871 -6655 3626 0
-3415 8286 7842 0
4065 5839 -359 0
5767 7615 5135 0
-1309 -491 3338 0
-4306 534 6881 0
-8482 -850 -1919 0
7727 -6392 -4094 0
-4654 3338 5234 0
2649 4146 5162 0
4341 9035 7348 0
-6599 -4891 -138 0
-9752 -1988 -1425 0
-5880 1101 -9515 0
6508 -7713 4359 0
-8794 6253 -3287 0
-5090 9791 -1261 0
-8424 -9369 -988 0
6208 6306 8959 0
-461 3750 -2775 0
-9021 653 -2498 0
9525 188 5636 0
-8960 -8522 6465 0
4737 -1064 -163 0
-6801 -8791 1508 0
-6630 7255 -4060 0
-7496 -6202 5185 0
-7674 8362 5995 0
-498 8853 -8556 0
-6202 3238 -2982 0
735 -2765 -4571 0
4867 -9865 -5765 0
7063 -6738 4808 0
3338 -3122 3238 0
3870 -242 -3630 0
-798 9064 -4785 0
-1636 871 -3584 0
1908 -6587 -6504 0
5707 385 865 0
2223 -1348 -5491 0
2204 2282 5826 0
-3410 4342 3671 0
-2193 2781 -8775 0
4354 -7220 -1959 0
1297 -4303 -6897 0
-8477 -3038 5385 0
-4132 -113 -5258 0
2671 -4996 4530 0
3114 9509 9947 0
8130 -171 6189 0
6782 -7323 -1653 0
9781 -5233 7100 0
-1627 -9134 -1757 0
-2470 8353 -7133 0
6126 4717 6201 0
4784 7392 6950 0
4857 -5832 -5203 0
8832 6329 -6840 0
5000 1212 -8444 0
-8621 8085 2487 0
-3131 8717 -939 0
1053 -6867 6693 0
9920 -955 4695 0
548 -8172 5271 0
-6113 -9262 -9832 0
4536 -3200 -5801 0
-666 -6962 5833 0
8758 2284 1787 0
-287 9190 467 0
-6603 -6474 -9988 0
6661 8240 -721 0
2244 -2117 -2067 0
7088 120 -1653 0
7691 -5659 416 0
5344 -2757 4342 0
4634 2635 5839 0
-2771 7674 8263 0
-2044 -4778 3628 0
5769 -9772 -8964 0
-8309 4240 4063 0
4035 -4412 -1638 0
-2047 8419 8717 0
-5905 3829 -819 0
5396 -5344 6068 0
4971 7771 3090 0
3886 -5153 7044 0
-8960 7798 5926 0
-1613 7923 -4058 0
-67 -4075 -248 0
1695 -7801 -4190 0
7812 -3153 6071 0
6360 -1100 4661 0
677 2162 6956 0
1657 -6252 -2632 0
7626 -1491 -8661 0
9142 -4061 1661 0
-6193 -326 9448 0
7173 8885 2826 0
-8394 4919 1274 0
-8732 -2342 -4482 0
-4971 -5883 -4993 0
-3731 -2687 3504 0
-1477 -2446 -7214 0
2051 -4297 -5678 0
-3388 2096 8161 0
4504 9584 329 0
-7841 -6033 7972 0
7107 -5924 7268 0
-405 -7372 7204 0
-1308 5396 6843 0
-4994 -9127 -944 0
-407 -4476 -2765 0
-3818 5647 4518 0
2742 -5613 7491 0
2800 -7785 191 0
5793 -4830 4094 0
1846 -3877 3316 0
-8683 2863 1371 0
-1004 -5146 5023 0
5038 -5679 2839 0
-4611 -452 7943 0
-8177 -7023 -2807 0
-1650 -1294 -8106 0
-7190 -7220 7808 0
-5490 4271 125 0
5240 3908 4427 0
-9426 -9883 -5263 0
-876 -8088 4512 0
-6764 8054 1053 0
-945 1141 8000 0
3739 9291 -6471 0
-2441 3978 9424 0
210 -3747 2032 0
-1727 -1137 8651 0
-6849 364 6701 0
-4473 136 -263 0
-4325 1598 -3458 0
9100 -6175 6725 0
1290 8599 2682 0
7463 4243 -690 0
-925 7839 -6354 0
-4867 -6571 -756 0
-119 8261 6851 0
270 4993 -6511 0
6667 9745 -4847 0
4901 -6708 8320 0
-5838 -6280 -3399 0
-9220 -8406 2479 0
8043 1447 -3481 0
4272 7363 416 0
5109 4271 7056 0
-2136 2312 2094 0
9885 -2945 -6168 0
9207 -4061 -9010 0
-4198 -8089 9590 0
8798 -1869 -5272 0
-5475 -2916 996 0
-9546 -6989 -6994 0
-9848 7539 -707 0
3370 -885 8177 0
-8756 9400 5677 0
-4305 -1622 -5999 0
703 9904 7238 0
8516 -420 3974 0
-3864 -8290 -3296 0
2689 -4211 -2348 0
-4657 4289 2313 0
-5923 -5544 -1707 0
-4468 3987 -1021 0
-7412 -3207 3662 0
865 1092 3373 0
-599 -5770 2620 0
-8613 5371 3695 0
397 6987 6141 0
-4643 2775 8196 0
-2408 4459 -9176 0
7903 -3180 7385 0
-9117 2101 8684 0
-2192 -9459 5924 0
9920 -5321 -2613 0
8071 4056 -7169 0
7297 -4357 -5506 0
8262 -1229 9080 0
4749 -5880 9279 0
2926 4329 1788 0
7439 -4596 -2170 0
2684 -8849 6446 0
-8425 -6173 6995 0
-3479 3219 1013 0
694 -1754 -5480 0
-7109 1305 951 0
-8393 7531 -46 0
-7495 5013 7092 0
6789 6281 -5724 0
-6641 7503 -8660 0
1708 1734 -4315 0
9407 9445 8987 0
-8208 -3212 1062 0
-2597 9232 -9809 0
-4783 9100 -4396 0
9498 -5379 6601 0
-1287 -8370 -9612 0
6233 -1760 -2112 0
-6303 2136 7518 0
4726 -2505 518 0
-76 3765 -9529 0
-1662 -4676 -3682 0
-2518 -493 -3247 0
-7341 -9490 8992 0
-1968 -3679 -6509 0
-8912 -7011 9505 0
8651 -1397 -2022 0
-2154 1610 5175 0
-7573 -7143 -4305 0
2359 -2603 6234 0
-7214 -8128 5261 0
7981 8373 -3924 0
-3817 7672 -5296 0
4182 9696 5860 0
7658 -5269 3337 0
-1211 7455 -219 0
4225 1038 6430 0
-368 5593 4812 0
7509 2002 573 0
7419 -8288 3602 0
-8074 -8511 9456 0
7324 3073 6019 0
4219 7727 3265 0
5059 -5760 -5684 0
-1844 3963 8553 0
2497 6221 1981 0
-440 -2092 8917 0
-8439 -9669 -1326 0
-1308 -737 5386 0
4758 8424 9936 0
4923 7218 -5155 0
-8210 -4869 -9944 0
-6114 -8870 9356 0
9900 -3822 6336 0
9758 -3121 6770 0
5019 -291 1127 0
-1513 578 -6954 0
4746 -9172 3919 0
994 1317 7401 0
-4166 -7000 8802 0
-7641 -3015 6575 0
2894 -2998 -9261 0
4329 368 -5832 0
-1921 2512 8494 0
1507 -9913 7561 0
-1481 1048 -3853 0
6410 -2726 -5278 0
-8799 2964 1254 0
2929 -5275 -2444 0
5486 -6799 9593 0
3337 8311 -8283 0
-9990 -4522 -2939 0
8854 -1433 -1479 0
-5600 -1157 872 0
-9916 8565 -9153 0
3492 6091 -2102 0
3610 418 -8609 0
2754 -7339 4287 0
9781 -1322 -8121 0
-9865 -3515 -4589 0
5651 -3287 8175 0
-7271 4691 6113 0
3498 7689 1411 0
-5879 6683 -2808 0
2415 6611 2186 0
3180 7831 -4412 0
-1295 6870 -5485 0
5150 -9780 -2811 0
4860 -1840 -5046 0
9125 7341 -5605 0
-1284 -5952 8249 0
-9670 2076 -9402 0
2984 -1397 -7956 0
-3555 8745 6466 0
-8283 3248 -823 0
-9054 3652 9958 0
-2058 4069 6973 0
-8916 8146 6248 0
-1944 5751 -507 0
2878 -4153 2500 0
8949 6221 6149 0
-2061 -295 -5813 0
1202 3315 6067 0
9539 771 -674 0
9509 -6326 7916 0
8758 -5531 -6128 0
-1646 6665 -5643 0
-3491 -7426 -5130 0
5497 6727 -6097 0
-1973 1857 -6653 0
7679 9741 5996 0
-3553 -6199 8485 0
9090 3092 -9076 0
8085 -81 -9163 0
8299 9629 -9546 0
592 3667 776 0
1104 -6817 7049 0
-6651 -8618 2665 0
-7240 -1523 7416 0
1619 5989 -8794 0
2664 -9971 4840 0
-9083 5724 5823 0
-5666 5096 -7901 0
-8791 9377 2780 0
-1201 5292 -3173 0
-5080 2705 8154 0
-8180 -9236 7398 0
6541 -3161 8520 0
-3030 -7814 1210 0
-2475 624 -2252 0
-2244 4460 9116 0
4998 -9190 6963 0
4539 6759 -5336 0
-1376 -9330 -4399 0
-1902 -8870 -2959 0
4660 9517 5509 0
-530 -6515 -3964 0
-3280 -3650 1386 0
-7097 -9612 -6992 0
-9226 3812 -3594 0
-9904 -827 4860 0
3961 -4957 8378 0
2537 3784 -8202 0
2447 -5585 3474 0
-9771 -7766 9445 0
-3248 7842 4655 0
-3082 -3 -5775 0
-2063 6613 4734 0
-8338 -9196 -3608 0
8207 -6876 7837 0
-2820 5944 7016 0
42 7967 4718 0
8092 322 -5872 0
-2066 6907 -776 0
-671 -8693 438 0
-1129 8399 6865 0
1124 -7736 -4288 0
2250 -7028 8058 0
-8641 7082 8553 0
5073 -4824 908 0
358 -8858 -8823 0
-1516 2830 9870 0
7220 9461 -9274 0
8626 -5494 7976 0
1568 4215 -3787 0
4808 -4792 -6374 0
6088 -5025 8995 0
-1356 -1654 4521 0
-3186 -3111 -316 0
6852 6685 -8755 0
-6105 3946 -3922 0
2639 -9031 2415 0
-4555 -1773 1478 0
5209 -5067 4307 0
2274 -5286 7060 0
8772 -1090 4508 0
8944 6156 -7930 0
-2502 6794 1061 0
2847 7821 4005 0
-977 3746 7524 0
-8559 -8362 -4330 0
9701 9172 -249 0
5467 5815 -7971 0
5785 -6840 9469 0
-239 2708 -7169 0
3144 -8600 6850 0
-602 3822 -3136 0
-6079 4828 -3994 0
-1486 -1961 -9145 0
5797 2565 747 0
2124 3662 -247 0
-7393 2438 2675 0
-7934 3951 -7523 0
2975 2058 4628 0
-6449 -7195 -3889 0
8392 6609 -5858 0
454 6398 4885 0
-3823 7838 668 0
-6415 -9927 94 0
3902 -9211 9714 0
6076 -1491 1015 0
411 2961 7417 0
9426 -8103 4697 0
1071 -3657 -4782 0
7182 -150 6720 0
3869 4538 4661 0
-8293 -7105 7238 0
1448 1840 -9781 0
2325 7847 -2893 0
-9392 -6736 -4718 0
-4555 -2444 -6755 0
2879 3175 -1489 0
2712 -9114 -9130 0
4487 -1981 1009 0
-7125 -9605 5089 0
-3143 -5948 -8375 0
188 3031 3282 0
6416 -9640 558 0
-533 1585 8968 0
1037 75 -5499 0
-8653 5388 9484 0
3323 -8559 -7937 0
-4897 6639 -484 0
-426 -1560 842 0
-282 9860 -8519 0
-5932 5702 -2535 0
-802 1470 -1474 0
1390 5136 2848 0
-440 4354 -1888 0
-7947 -5457 -7121 0
8731 -6564 -4051 0
9118 7312 -4167 0
9116 -5159 -6386 0
-4969 9660 -2711 0
904 7240 2027 0
6034 -4514 -4642 0
4093 -6474 -4 0
8804 7453 -1538 0
-6900 -5729 -3520 0
-6180 1550 8706 0
-9396 3780 -309 0
-7594 -6452 -3141 0
-3130 -5809 -7845 0
-919 -5250 -9940 0
-9168 -6754 8341 0
7122 9382 1036 0
-3020 9418 5276 0
-8065 8052 -2246 0
-8895 9992 -6741 0
-9337 -7514 -1771 0
-1240 350 1137 0
6484 9943 -3462 0
-6880 5889 -3305 0
-9154 -1982 6557 0
-5925 -8374 5852 0
-6834 -5032 7332 0
8729 675 -4626 0
-3931 -6010 9833 0
7408 6739 9837 0
9528 7910 174 0
5834 -8769 354 0
3575 -9224 8663 0
-833 -4023 -7864 0
5445 -4729 5387 0
9577 2603 1158 0
3769 3884 -5413 0
-8404 1156 -9852 0
-7559 -8105 8531 0
7831 3400 4035 0
-3387 5244 5909 0
5077 6407 7267 0
-425 -4024 -3260 0
6265 9708 5877 0
-3143 6174 -5259 0
-3805 171 1559 0
2664 -2313 827 0
-8468 -3423 -7155 0
9040 -8280 -3635 0
3694 2371 -4059 0
5914 -3412 3559 0
8867 834 -1167 0
888 -4096 -4751 0
8678 -3975 6197 0
270 -6853 -4437 0
372 6007 1048 0
1579 -3007 -5207 0
1096 2134 -2218 0
-3660 -2140 5346 0
3435 -8527 -510 0
5238 -5442 -2820 0
-6175 -6403 -3918 0
8434 1694 2669 0
2568 30 6152 0
-1549 6850 -5473 0
-1281 7797 -1705 0
7221 1442 -6800 0
-7208 7288 -3325 0
6267 2565 -554 0
2675 7928 2723 0
-4568 6072 6685 0
-2813 -8534 5173 0
-5065 5149 -5972 0
3588 -5220 5585 0
9612 5370 8709 0
-560 -7911 6903 0
4463 719 2760 0
662 -9435 -5316 0
8440 2583 9555 0
-2384 112 1795 0
-3943 8047 9723 0
4557 7705 -9485 0
-5998 -3402 -8948 0
-9458 2868 -7633 0
-6197 -6938 -5348 0
-2563 4193 -6450 0
8891 3084 -6159 0
8768 9589 -4658 0
7435 -7327 8824 0
-6599 -59 -8133 0
7413 -1627 3372 0
-4893 4075 -5517 0
-3515 4554 6651 0
8820 1900 5027 0
2495 -8737 2618 0
-8313 -2397 -2701 0
6178 8126 6912 0
-7147 -3088 6334 0
-359 -3964 -5253 0
1268 -474 5527 0
-8241 -8317 4266 0
928 2506 6584 0
7283 -3233 -6057 0
3192 -210 -7292 0
5539 -6574 3343 0
2479 -2560 -3146 0
1694 2161 -8518 0
8370 -3463 -6934 0
-2114 -6972 -1880 0
1262 -1600 -517 0
1280 7589 9835 0
6431 -5784 8236 0
9316 8059 -4068 0
2255 7756 -6896 0
9622 -5085 -4396 0
3887 -1454 -7054 0
794 3367 -650 0
-3581 -1909 6652 0
-6046 -5347 -6412 0
-5195 -2555 5778 0
4801 7092 -7984 0
-4830 880 5098 0
-436 3402 1859 0
-8122 4439 -4866 0
5232 4426 9337 0
1679 951 -1409 0
3467 -8251 7273 0
-2342 -7745 5174 0
-1056 9275 7334 0
2474 -7410 4896 0
-1790 -9859 806 0
-6500 6363 5766 0
1857 6094 -5561 0
-2649 1883 -8533 0
-9427 -5351 -64 0
3375 -9658 7244 0
-3276 3951 -2161 0
-1104 3518 2132 0
-9278 -5325 -1662 0
2466 -6090 2759 0
5205 5138 -5805 0
2601 -6921 -4668 0
9816 4003 5352 0
5081 5248 2772 0
-1444 8693 -7764 0
2587 -6613 1585 0
-5217 -282 3388 0
7428 8874 -8322 0
4159 7720 1582 0
7484 -1778 8280 0
-5802 278 -9035 0
3967 -8463 -880 0
2157 -9296 4512 0
-186 2152 5265 0
7241 -5992 3582 0
-8493 -9856 8558 0
-2507 8746 -4333 0
-1480 -8099 -5833 0
-4297 2261 616 0
-8640 1194 -6134 0
5407 6062 -9005 0
-3793 8373 -4630 0
-9489 7454 8941 0
-4933 -366 -5549 0
-8150 -5885 8815 0
1803 1314 -7585 0
3094 1877 -2421 0
2303 -3489 3079 0
2627 -6820 7495 0
4468 7295 393 0
872 -6522 -7790 0
-4561 -1060 -9917 0
-1112 1770 9841 0
6904 1856 3257 0
7961 -7018 5228 0
3346 9340 6016 0
-7226 -8124 -4383 0
-5218 853 2170 0
-8734 -3177 -4742 0
5205 649 51 0
-8005 -8299 7061 0
-2786 5820 8492 0
6924 -1196 1491 0
4550 -2425 3936 0
988 790 -3600 0
-7378 -2369 9198 0
-3344 -7690 -116 0
8348 -3801 2972 0
1335 -2663 -2531 0
9709 -2736 2561 0
-7576 -4295 8177 0
-4095 -5895 -2819 0
1218 -2193 4909 0
3478 3146 4180 0
-9665 -9982 -4983 0
-7812 -3833 -2074 0
9002 -7923 -9164 0
-9893 5554 7408 0
-9849 -7331 4726 0
-9078 9488 5306 0
-8850 -6227 6536 0
4985 3849 3169 0
1046 -9721 7885 0
-6703 -8379 -3769 0
6225 -171 2108 0
-5189 4524 7801 0
-4261 786 8589 0
1588 -262 6363 0
-7078 -367 672 0
9098 -5203 8178 0
-8599 -596 -6957 0
6526 2433 -9921 0
-6377 4152 -6571 0
243 8670 4708 0
-2066 -752 7806 0
-2685 8176 -5877 0
-7564 -4168 8657 0
3438 -9705 9225 0
6618 8925 4416 0
2668 -6210 -9047 0
-8164 1519 -2844 0
-8860 8890 6171 0
-8553 -7583 8078 0
-1462 4655 7163 0
713 -6087 2846 0
5453 -6064 4376 0
9204 -2558 -7989 0
-5380 7724 5601 0
7021 7720 -5591 0
-1911 -3027 6454 0
3180 -3122 5144 0
-2345 -997 -6161 0
-3396 -9436 -3087 0
-851 522 3365 0
-8277 5096 2331 0
2190 -8437 -4718 0
8267 -8576 -1776 0
-924 4385 9737 0
-1217 2842 5456 0
4758 1656 -6161 0
-9013 2079 -985 0
-892 1947 -4894 0
8310 3207 2484 0
4894 -5297 -4756 0
-1731 -4372 -7015 0
8573 -5379 -5299 0
-4830 -2866 -3106 0
9560 -9674 8554 0
-1593 -4210 1347 0
-8418 -7254 -4517 0
-6811 -5362 3903 0
1384 -4302 -9491 0
-5417 -1404 -1768 0
-4929 2081 6293 0
-8929 -9625 -5186 0
1952 7368 -273 0
7469 -4245 5765 0
8264 4844 3328 0
4394 -5051 -1266 0
7421 -8787 7263 0
1089 8935 -8698 0
19 -6593 9722 0
5693 6200 2244 0
-3597 -9620 8119 0
713 9866 -2344 0
7750 8366 -3498 0
-7827 -9761 9672 0
2207 -1765 -9521 0
6912 -6841 -6305 0
1457 -7526 -8122 0
4196 1957 -7431 0
5804 -7699 650 0
-6342 2964 4909 0
3736 -1479 3646 0
8102 7959 743 0
1673 -3608 4314 0
3835 2404 9233 0
420 -3426 1638 0
9450 -7722 66 0
-3316 6170 5895 0
8951 9236 8671 0
5823 9215 6468 0
-3843 9617 4339 0
-5847 -6402 -9203 0
8947 7709 3942 0
-4504 2667 14 0
2158 8296 6389 0
-2172 3823 9553 0
-1392 -6147 6532 0
-1727 1712 -4533 0
-6783 2550 7575 0
-5800 -5473 -3820 0
-3759 -3459 -5231 0
1911 -2610 -5067 0
3583 -614 -1113 0
4615 4989 -413 0
7680 5680 3114 0
-8714 988 -2107 0
-2991 -3620 -5609 0
6751 4634 -8522 0
320 -6874 -2236 0
-1797 -9303 -3676 0
5812 -20 -2463 0
-3647 -8156 3979 0
6774 -8158 1193 0
8011 4486 3691 0
-9482 -1898 9300 0
-4930 -396 -2691 0
-9186 -9475 6993 0
6557 -7980 -1202 0
2168 220 -8965 0
7133 -3135 3491 0
1271 -8628 -3633 0
-4693 -461 -7970 0
-2315 9671 -6358 0
-6224 -4212 -5236 0
6542 -8740 -3559 0
2900 -4186 4450 0
5154 1793 -1995 0
1296 -9938 6391 0
7962 -2341 -8593 0
-8373 2873 -3673 0
2516 -7986 -8733 0
-9369 -23 3011 0
6462 2065 -4560 0
-1609 7686 824 0
7711 -4377 60 0
-4859 4737 2855 0
9455 -6236 7761 0
-5103 4494 8715 0
9261 -9869 3653 0
-7184 -306 5533 0
-3649 4854 6379 0
-3945 4144 -877 0
8798 -8914 5252 0
3868 -4933 3157 0
3372 7090 1300 0
-9369 -2996 -55 0
398 -7236 2853 0
-572 3393 4357 0
-3309 912 5939 0
-8662 8170 3920 0
-5055 8809 -537 0
-6068 6113 3137 0
-8978 -2562 -8961 0
-4769 -9128 8397 0
-9097 2896 504 0
2212 -817 2778 0
1284 6141 -3459 0
-9289 -4173 7045 0
3887 -5483 7829 0
-2032 -7671 -2389 0
9897 7411 -5314 0
2506 502 993 0
3117 -3919 -1538 0
-6895 -6761 2995 0
-1037 6839 -4410 0
9288 -4668 -224 0
-5619 -179 -2435 0
-5549 5020 -8833 0
2716 -5993 -7927 0
-4514 4879 6964 0
1088 2098 -4970 0
-2921 -6227 -2542 0
-4089 4930 7456 0
-1204 -5010 -1286 0
-3399 4898 -1544 0
-2453 -1035 -5789 0
-1529 3905 -2932 0
-3527 -65 -7768 0
5360 -2664 -3276 0
7338 -9378 4912 0
-2667 1916 -4595 0
5550 -8701 -1648 0
1334 -1279 6557 0
-1767 -9867 -4026 0
3689 -3850 -5506 0
-8877 7702 -8184 0
7861 4598 4694 0
-7982 6918 1355 0
8981 -6353 -1554 0
-5062 5734 -3111 0
-4703 5018 5380 0
2531 8356 6239 0
1120 -5766 6014 0
5938 2145 6921 0
496 -4912 9956 0
-124 2524 5924 0
7588 -5943 4822 0
4074 9094 232 0
-2601 -1718 2339 0
-1652 -3102 -1195 0
-6288 -7950 -8337 0
7845 -4947 1113 0
-8871 6078 8794 0
-6744 2143 -6776 0
2263 -717 7642 0
-7030 8208 8409 0
7511 6080 8911 0
-8192 -5981 7461 0
-668 -5808 -9095 0
-558 9779 -7569 0
-2008 -1331 1695 0
2494 -7823 5887 0
5200 -838 707 0
2756 1973 9845 0
-3216 2872 1441 0
-7471 5284 -3439 0
8029 299 2683 0
-4798 5603 8548 0
6383 7610 -8045 0
4952 -9782 -138 0
-407 2275 5345 0
-7811 -5131 4949 0
-8196 -9535 7616 0
6000 -2443 7466 0
-5080 -4327 -4832 0
6705 -7352 -6834 0
-6543 6727 6619 0
3340 -9140 -742 0
9370 -8632 7112 0
3980 2370 -3889 0
9279 1867 -7649 0
-5507 -7601 2413 0
-8993 8981 -4469 0
6642 -2661 5290 0
-2509 8557 -7889 0
6890 7651 -9235 0
9613 -6620 5258 0
7984 7900 -5825 0
7359 -8285 -4023 0
3694 8482 545 0
-9724 -9061 8650 0
9434 -4285 -1116 0
-8519 9299 5393 0
3378 5766 5570 0
-7418 -647 3496 0
-2684 -8901 -1788 0
7021 -5332 -4070 0
-741 -5050 1541 0
1226 -9845 -3541 0
3699 4674 -9871 0
-7030 6295 2899 0
8648 6886 9011 0
-2333 -6251 -9156 0
441 5243 -504 0
8641 -2 -5386 0
580 2750 -345 0
-6374 5823 -4464 0
4121 -7677 8236 0
8691 776 3595 0
297 2987 3387 0
8832 2216 6399 0
4562 -1813 -5884 0
-2064 7777 3965 0
-3580 4025 -7784 0
-7911 4365 -9739 0
-3438 3235 -9824 0
1780 -3075 -4004 0
-7313 9290 -8672 0
7085 -5589 1943 0
-5945 -4824 -3971 0
8458 6890 -4874 0
-6025 -5661 -9097 0
7873 -5255 4275 0
6745 6971 -8329 0
4270 2604 9952 0
-4085 376 5192 0
-5488 642 -1587 0
-3652 -5416 4778 0
9046 -3143 -407 0
-7380 -2813 -8195 0
8048 5925 -9180 0
4653 1484 6294 0
-986 -7239 2166 0
1453 -1252 6356 0
-802 -2116 -2952 0
-2825 -5164 -8299 0
-4976 -3718 959 0
-8783 -2608 8886 0
-7453 7229 -7601 0
4602 8381 -4563 0
4438 6997 7905 0
5864 -967 -4138 0
-2022 -8598 -1447 0
9337 -6481 3551 0
-6105 -4923 -9604 0
5068 -957 2036 0
6134 1830 -8221 0
2754 4563 -6801 0
-7568 4468 -5860 0
-2005 7699 -4677 0
-6967 9453 -5432 0
-8134 -8838 -5023 0
3959 -4547 -8930 0
-7904 5812 7834 0
-2650 -1273 -7589 0
4250 6401 8998 0
-1961 3167 4732 0
8830 -5880 -1565 0
9680 3021 -1328 0
5575 -7381 433 0
-6661 -175 -861 0
-4059 1467 2700 0
6017 3086 -6010 0
8231 5151 7054 0
79 -4408 -4872 0
1641 -5931 8774 0
-908 -6737 -3134 0
-2123 4320 5954 0
9697 9744 5899 0
6103 1643 -4979 0
-683 5587 -193 0
-2847 2532 772 0
6650 -7340 -8915 0
-8539 -5232 1986 0
4140 8743 8377 0
-1832 1161 -3868 0
-583 678 -915 0
1722 4172 -7621 0
-1224 5011 -450 0
-5396 2836 -3799 0
-310 -2469 2202 0
-3355 -8714 966 0
9012 -6119 -2762 0
-6698 3775 2882 0
-5187 4263 8909 0
5522 -395 -3509 0
-8157 1307 -1513 0
9289 6033 -9049 0
2573 -2527 1053 0
8341 7271 -9138 0
7874 -9750 8672 0
-5996 9635 7146 0
6457 -4794 -9909 0
9493 -9517 4627 0
2728 4794 3296 0
-5520 -9338 -4626 0
-7461 8099 1092 0
-5195 -4872 -9023 0
9248 6212 -1391 0
-3959 -4313 7665 0
-8167 -9684 9087 0
-7839 -9083 -2302 0
7671 -4892 5877 0
-6555 -3172 318 0
4481 8003 -2528 0
5246 4127 -2871 0
-1159 6625 -7512 0
2643 -8795 -7113 0
467 -7073 1182 0
-3234 -1430 4650 0
6121 2333 -9937 0
4865 -9936 5987 0
-5476 5703 -1602 0
4380 9810 8612 0
917 1416 -3447 0
9809 -7500 3911 0
3838 -7253 -6731 0
-7697 2083 -7612 0
8785 -2195 -6192 0
9745 -9130 1895 0
9278 3971 8934 0
-9585 -9505 2623 0
1168 -2048 4819 0
-3107 9313 95 0
3346 3978 -9239 0
7480 -5147 -8660 0
-5936 4784 -356 0
-7834 3091 7646 0
-5671 7447 578 0
7216 9749 -6242 0
3852 7584 5747 0
7667 -6351 -4028 0
9889 -6256 6789 0
6250 2636 -7084 0
-4978 -6497 4488 0
3971 9409 -7111 0
6399 8902 -5766 0
8810 -540 -4711 0
-5970 2947 4435 0
-5527 -3749 -8467 0
-5899 -1378 5269 0
9670 -9787 -6930 0
2138 1182 5331 0
-1563 -6872 -4227 0
9263 4043 -1583 0
-5121 -1894 -6626 0
-5792 7689 -5144 0
669 -6464 -6695 0
-2666 -2296 1624 0
6501 -3861 -8147 0
-3314 7673 7807 0
839 8622 -347 0
-6111 9448 -6527 0
6249 8967 8489 0
-2242 -2147 -9015 0
-2046 -5839 1766 0
9100 -5268 -7894 0
965 -6823 3823 0
1644 -1273 9317 0
1789 -2749 1196 0
-6316 9239 6939 0
-8332 -6813 9277 0
-4150 -7487 2419 0
5764 4975 2608 0
5339 -125 194 0
-2309 -2031 9744 0
8037 -2719 4533 0
-3533 -9263 -4152 0
1238 -2495 4888 0
-5611 5371 -2076 0
1443 -513 3731 0
5187 -5394 5236 0
4228 -1110 -6477 0
7407 6763 -5582 0
-2930 3495 -980 0
-2014 6372 -197 0
9279 -631 -5884 0
-5148 1724 -9876 0
3353 -7820 9745 0
5710 8808 -2545 0
-4949 -7190 -2132 0
-2707 -7283 -8755 0
7084 2056 4875 0
-5135 -582 3674 0
-2992 9857 -1503 0
-1529 4939 7641 0
-7457 -5127 -2314 0
-5927 -7390 -4191 0
5954 -9912 -1634 0
6715 -8596 2523 0
5013 1129 -1566 0
198 9744 5876 0
5291 6212 -7346 0
-7249 -1481 -7882 0
2916 8099 4993 0
8996 -6871 -1307 0
-2467 1255 -1326 0
-3786 -3607 8543 0
-9984 3572 -9252 0
-5607 6309 -5083 0
-3694 -6673 5659 0
9327 -1907 -1574 0
6988 4092 13 0
-9286 9076 -6845 0
3389 -1056 -8859 0
7175 -1759 -6042 0
19 -5294 3960 0
-8252 5252 -4912 0
-3287 -9767 -2068 0
-4201 -6911 -8195 0
9858 -2488 -1996 0
5747 7417 -1457 0
-8485 9069 -8133 0
1161 -7276 7977 0
4611 -89 8541 0
7034 1885 9902 0
-4096 2298 2452 0
-7393 -3056 -2148 0
4291 -8084 -9969 0
3903 -2870 5067 0
-2010 -9228 9272 0
-1655 -6648 4479 0
-6703 7442 -9718 0
-8010 -9432 -4154 0
3340 -2470 7656 0
2247 -5676 -1426 0
-9978 -3470 8995 0
3560 -3298 -1338 0
-4296 2491 -5726 0
-8187 448 2534 0
2013 8801 3354 0
9584 -9168 8177 0
-6961 9031 9054 0
2475 8858 -9007 0
7769 9226 -1803 0
2892 8224 -1734 0
9872 -9705 4572 0
5823 2257 -4836 0
-5961 467 2356 0
-8861 -2228 197 0
-9023 3533 7805 0
5391 9665 -7911 0
6917 3006 -3683 0
9427 2391 1685 0
-2079 9166 -4148 0
-2527 -4773 -2221 0
-7447 3181 -7261 0
-8762 -5034 -2521 0
-3691 -4385 7235 0
8372 -8306 -5324 0
-7062 -4442 -5347 0
7195 -5752 -9593 0
-3564 7885 -5702 0
-4076 1642 2340 0
7990 -257 418 0
1668 1853 3143 0
-8989 4104 -9633 0
1928 -1023 -3761 0
8194 193 8390 0
8580 -4609 3145 0
5937 -2621 2496 0
7071 -3906 5367 0
4175 -4414 775 0
-3019 2405 -6995 0
-4882 -5725 -1368 0
-576 1747 2490 0
-3311 -2805 5869 0
-7019 7835 3536 0
-2039 -3687 -2532 0
-1445 -9834 -8304 0
-8034 8057 7668 0
5710 -1483 -4728 0
9916 2233 -7539 0
-6794 -5228 -6905 0
4185 -9050 -3183 0
-9270 1565 8811 0
1306 1012 7177 0
4391 -6575 3837 0
7495 740 1818 0
1543 -7950 3793 0
-1454 -6420 9784 0
-5135 8316 -7655 0
-2159 -839 2146 0
-2072 -4568 1888 0
830 1750 9090 0
6695 -3891 -7628 0
-7725 2272 -5979 0
4253 9137 8657 0
-6169 7574 -5628 0
4928 -1382 6770 0
176 -3713 -190 0
3503 -3477 -8851 0
-9535 6929 8094 0
-4589 -2665 -1797 0
-2127 -7923 9376 0
9816 2035 4240 0
-6298 -6108 7056 0
8952 -7459 2468 0
2418 3520 -7170 0
2521 4352 -9267 0
4567 -4653 -3178 0
1809 -5413 4506 0
7643 -4735 -3970 0
-2027 4250 -6386 0
7886 -6988 1625 0
4314 4990 2278 0
2609 4347 -720 0
1752 3568 -9035 0
7728 1788 -3494 0
6797 -9956 -5256 0
-6344 2875 -4312 0
-7194 -4998 -646 0
7769 5117 8276 0
5428 6295 5658 0
-9074 -2494 9650 0
-1632 7589 -632 0
-1183 7418 6702 0
7225 -3465 -1020 0
-6395 -9364 1535 0
1124 -184 -9226 0
-7883 -6144 436 0
-4208 3471 -1790 0
5900 886 -1956 0
1227 -1419 -7127 0
-1024 -9178 3348 0
-2947 8245 -1339 0
785 1280 2111 0
-682 -5264 -5011 0
-7880 8329 3462 0
5191 3969 -6451 0
-9061 -3123 6192 0
8148 -8071 -8244 0
-9975 -3770 -7884 0
4937 -8963 -6795 0
6398 1996 7631 0
8772 -4526 -6640 0
650 -5183 8126 0
-2411 7330 1031 0
-1652 -7990 -2400 0
-5317 1572 8937 0
7344 4297 2678 0
7221 -5775 -5082 0
-2562 -417 6583 0
6700 8184 9594 0
-338 -8032 7946 0
6048 4137 -7171 0
2692 -4345 -1352 0
-9063 -6315 -9745 0
-4230 -7938 -40 0
4295 9442 3249 0
1780 -6305 3598 0
-82 7766 1798 0
1582 -6773 -2780 0
9543 5938 -8344 0
-8537 7425 181 0
-9950 -2351 -437 0
-9352 7629 6797 0
-2122 2672 -5372 0
4078 -8270 -2227 0
-6680 7555 6188 0
4098 7216 -2102 0
-1392 8189 -3638 0
-5326 -3460 -8360 0
841 3300 397 0
401 -7118 -5134 0
3009 344 -8186 0
-3959 -4660 8136 0
-9327 1813 -9809 0
1114 -1867 9527 0
6874 -1906 -4 0
-5860 8263 8487 0
-5510 2752 -3711 0
7277 535 -7611 0
6640 -4375 3543 0
-6233 -3880 7652 0
-3592 5759 -9177 0
1074 9307 -9401 0
442 6107 -8217 0
6854 -4179 5328 0
-2425 -209 -4359 0
3693 -300 3649 0
8817 3251 -8584 0
-7766 3489 9575 0
4964 1683 -3715 0
-3557 -7919 7515 0
-9759 -6677 233 0
-8649 -6663 1876 0
7173 27 3635 0
5795 7901 7760 0
-4655 -7948 -6943 0
6099 3978 -6521 0
1203 -542 -2794 0
3528 -9924 -2605 0
-8217 8271 8289 0
5796 2153 -1960 0
-741 -8101 -9608 0
6227 -4562 5888 0
-9630 1757 8097 0
-4002 -1112 6078 0
-9794 6769 480 0
2704 -9701 -8651 0
4533 6187 4475 0
437 1595 -2792 0
987 6046 -29 0
7269 435 -7518 0
-995 -6600 3599 0
-8681 -4529 -6299 0
9921 7528 -8756 0
7627 -3645 4356 0
5426 7405 6527 0
-6551 105 -3062 0
6901 2570 2987 0
-2257 6794 -4262 0
6786 -8815 2086 0
-8689 1969 9743 0
-3220 9546 7292 0
1108 -3934 -5996 0
9407 -7233 9436 0
7307 3150 -2777 0
-6717 -7189 6236 0
6440 2873 -8595 0
9412 996 -1001 0
-4346 3516 -8869 0
6724 8390 4641 0
-6303 -7031 6934 0
6037 9586 398 0
-7553 -7791 -6841 0
-8650 -2206 -3875 0
-1982 -8326 -5633 0
6990 8865 9456 0
-2823 8947 7076 0
3096 -2057 -1216 0
-4123 6353 7689 0
-2667 8328 1940 0
-6894 -6244 -9271 0
2453 -2932 2966 0
-5721 -1549 2824 0
230 -6222 2576 0
6755 8755 -5157 0
-4853 6039 -4899 0
2442 2012 -2541 0
3101 9121 294 0
9652 7802 2037 0
6888 -863 117 0
-8186 -4358 2230 0
7191 9696 -6954 0
2036 1204 4062 0
2815 825 3297 0
-3249 -1634 2786 0
-3303 768 4815 0
4409 5721 -9766 0
-8634 -1396 5022 0
5550 7929 8334 0
-2676 -9786 -4854 0
4852 9468 -7787 0
4690 5890 -3826 0
2351 -5102 5752 0
-3234 -4258 -8219 0
2990 -1477 6297 0
-8044 -5815 2855 0
6324 -7714 -3479 0
3688 -7951 -8437 0
8073 -1728 1790 0
2973 8375 -2798 0
-1612 -9187 -3284 0
3180 9044 -8528 0
-4058 -3692 -8702 0
-6770 3556 -297 0
-3078 4253 2845 0
-9126 -6207 3771 0
-4317 -1006 -3224 0
-4859 4905 -2639 0
7366 7262 -9384 0
5557 -9743 8743 0
845 -1149 -2143 0
35 3283 -1006 0
-6709 -6434 -8156 0
-8217 6540 -9310 0
-7727 6980 -3427 0
6905 -9684 184 0
325 7459 7605 0
-984 -2070 -1253 0
1496 6218 -8973 0
561 -4362 6829 0
2109 545 -9666 0
7116 3553 9086 0
7778 -1931 -3846 0
-9322 7210 -9530 0
-7858 -1398 -9200 0
3367 9851 -1352 0
-3661 1677 -6550 0
-1232 7583 1467 0
1405 8705 2482 0
-3718 -5636 -5338 0
8219 5744 391 0
531 9204 -1399 0
-7083 6250 3506 0
-4796 5782 8680 0
3234 -3865 -7582 0
-297 -8280 3483 0
999 -6252 -3851 0
8140 1000 7411 0
7993 7629 8346 0
3886 92 -1937 0
-8972 -8807 8264 0
2840 3562 -3724 0
7743 -1698 6122 0
53 -873 -8326 0
2738 -5473 -8335 0
5097 -4460 6859 0
1294 8002 7250 0
-4802 -16 -9599 0
-6312 -9518 -5007 0
9256 1490 1962 0
-957 -4103 2211 0
-7534 3658 -7204 0
-7148 -2498 404 0
-6224 -6367 6504 0
376 1456 8299 0
4123 -9020 4139 0
-1215 -7131 2746 0
7434 -2550 -59 0
9648 1345 7680 0
7587 -8099 -9567 0
-6032 -3832 -1771 0
1924 7406 3742 0
8458 6097 -3604 0
-191 -9603 -5719 0
4707 -3889 -9063 0
-5567 5834 277 0
-1530 -7089 3333 0
-6748 -418 -84 0
-2253 -1737 -1848 0
8990 338 -9620 0
-1818 6663 5116 0
8826 -3264 7669 0
5992 -4324 5588 0
-1488 7545 -4601 0
3763 -1715 -4457 0
-4992 -8516 -6430 0
-6724 -8138 -2146 0
-9889 9217 -5836 0
4849 -3383 -6918 0
-1727 5090 -922 0
6519 -7544 4194 0
-2536 -1548 -5842 0
-1114 9491 -520 0
5090 7849 -8670 0
1322 -2573 911 0
5697 2955 -1500 0
-9204 -2389 -4142 0
-1916 -6353 4550 0
6201 -5358 2401 0
-9740 -6536 -2026 0
8035 -4719 4403 0
-2781 -9560 7173 0
2481 2746 9399 0
9023 -5294 59 0
5547 -4574 3678 0
-3492 8535 2779 0
6842 -6522 2902 0
-4315 -8194 -252 0
6816 2519 139 0
6037 -9914 -3181 0
1304 6851 6636 0
8050 -3631 2958 0
-7993 -4139 -8329 0
-6876 597 -5977 0
6737 3768 3705 0
6700 -9621 8168 0
8368 89 -9964 0
-48 -5150 6666 0
3766 5672 -8570 0
7210 -814 6106 0
-5256 -3963 7500 0
475 8587 6943 0
-7974 304 7192 0
-3418 790 8081 0
-4550 4069 -5968 0
2022 -7914 8965 0
-1729 7606 -7492 0
767 6850 -2416 0
-924 6596 6563 0
-6662 -5600 8413 0
-1908 -1669 -8835 0
4893 8865 176 0
5934 -3642 1990 0
-9309 -2909 736 0
3491 2975 5236 0
-4599 -9227 3805 0
3992 -6996 -5648 0
-8049 1195 2897 0
6493 9722 -8676 0
-9516 9125 -5887 0
451 6902 -2476 0
483 9192 8252 0
2618 8436 -2782 0
-3054 -8950 8821 0
-7887 4935 -4614 0
6184 -7985 -7710 0
-7504 4328 -9242 0
673 -3368 9670 0
9654 2098 7962 0
-9198 9656 -6061 0
8017 -3344 8523 0
-9336 -9382 -1534 0
-6691 465 5544 0
7190 -8575 7391 0
8629 8103 -733 0
-9041 711 -6631 0
-196 1895 -6321 0
-264 -6153 6998 0
-4602 3691 6188 0
-9186 -4270 4035 0
4093 -4734 8962 0
-8058 -3256 2559 0
5060 -9902 9925 0
7031 179 4935 0
688 -2757 -7867 0
-3538 -7902 -7713 0
-1290 9293 1386 0
-7071 -6452 -5646 0
8054 3952 -9832 0
-7391 -5582 -7609 0
7792 -9799 -5326 0
5453 5975 2700 0
-4762 9200 -9172 0
-6039 575 -2874 0
-9101 -4472 -938 0
3761 -9035 8112 0
-122 7759 -2800 0
6234 3441 3034 0
3870 -8057 162 0
7507 -4169 7747 0
-5312 -5047 3923 0
-205 8455 -2012 0
8074 -6279 2513 0
-5757 -1094 929 0
-9493 8254 5429 0
5288 -2887 6535 0
-9125 2273 -7651 0
1467 -2678 -1521 0
7286 4569 7105 0
8992 1556 -2493 0
-5324 2533 550 0
8281 5834 3323 0
-1272 2835 -9802 0
82 5383 9902 0
-6033 -9141 9427 0
2835 -3309 7184 0
-9596 -1266 -1242 0
8281 -8851 4384 0
6711 -769 -2533 0
7628 9704 6889 0
-5659 -7838 2552 0
7370 6381 9190 0
-3311 -8888 8960 0
-7574 -964 7803 0
-4369 -3428 9161 0
-6693 2264 -3772 0
843 857 -2770 0
1238 -7096 -6465 0
6587 1672 7150 0
2277 8625 -6390 0
3123 -1655 4203 0
-8950 -4434 7734 0
8655 -2948 9636 0
-3209 1739 -9633 0
4214 -7353 3185 0
431 -7602 2006 0
-7660 5112 9457 0
-699 601 -5317 0
-1389 8833 786 0
-95 9924 3427 0
-7761 7922 -6505 0
-3464 -5595 -1562 0
1366 -5118 4966 0
-6212 7338 6701 0
2587 6611 -7001 0
9998 6317 4620 0
-7964 8659 9601 0
-5234 -6169 8451 0
6532 5413 5173 0
-601 7509 5057 0
-905 8311 6864 0
1245 -7131 9467 0
828 3902 -9594 0
514 3318 -7997 0
1441 6993 -5824 0
5156 2428 3637 0
2362 6869 -3234 0
2698 -6162 -8872 0
-1802 -3000 -9168 0
-8600 -7761 -7298 0
159 -6253 -9854 0
-4333 4688 -5579 0
-3521 -8296 5460 0
6066 -9830 6644 0
3222 9583 9418 0
-1070 -7640 6626 0
1628 -7268 6804 0
4759 -5248 1414 0
7407 -3859 5568 0
172 1664 -4175 0
8096 8931 -1770 0
5669 -2466 -2702 0
7538 395 1477 0
1059 61 -244 0
-7729 3856 -1611 0
890 -3642 9224 0
-6136 -2027 -2566 0
-108 1010 3601 0
4505 4125 -8362 0
5601 -8277 8920 0
-7172 8192 6536 0
-7369 -9515 7588 0
-8431 5386 5586 0
-7421 -3459 7118 0
8400 -6876 2113 0
-7796 -1179 9159 0
-5011 -5922 -9914 0
921 -4333 9991 0
-3638 1680 -3363 0
-2624 -6221 1430 0
2718 5089 7363 0
7650 810 9202 0
-3888 9274 -1485 0
-6007 8296 -832 0
3021 1434 4243 0
6300 7141 3768 0
2547 -7048 -6232 0
6011 5592 9589 0
1105 -4030 8522 0
6667 -6611 1847 0
-2382 5484 -7253 0
-4525 -9982 3529 0
6224 -2414 9925 0
1074 -6510 1978 0
-6252 2770 -7620 0
302 2291 3213 0
9505 4635 7003 0
-4578 9900 -4290 0
3639 -1220 4910 0
-3254 -2969 -2222 0
947 8014 -8747 0
-6252 6225 -2837 0
5580 6113 3168 0
-4144 1597 6492 0
608 1842 -1712 0
-7824 5336 5568 0
-1915 1893 9775 0
5175 -8031 5975 0
9627 9190 -1413 0
-2107 6966 -4447 0
9301 -4854 4152 0
48 -125 5185 0
-5725 1326 -294 0
5946 7644 -1876 0
6309 -1370 5123 0
-1252 -6564 6849 0
-423 1713 -7413 0
8206 874 -210 0
-921 -1949 -1639 0
7749 -3591 -7461 0
3367 -3586 -7535 0
588 -917 9200 0
-2112 3455 4790 0
-7473 -9145 1500 0
-2113 -1538 -4817 0
-6442 3569 2283 0
9910 9860 4500 0
-5434 -4672 -4193 0
6763 -9631 -639 0
2806 1869 8089 0
6561 -6045 -9091 0
751 1244 -682 0
6785 114 3971 0
8382 -9181 -9139 0
-9734 -5943 8677 0
8828 6502 -7677 0
-4122 9462 3705 0
-4991 9632 -1323 0
-603 841 -434 0
-2614 9896 6030 0
9994 -563 -8776 0
1577 -8510 3360 0
6631 6841 4552 0
9972 7963 -2127 0
-5478 -1114 -1919 0
4554 -3753 -7538 0
-7991 -111 4281 0
6406 3654 1351 0
32 7142 4633 0
4504 451 -5872 0
68 -1083 -2388 0
2101 72 -7900 0
4996 6864 5499 0
365 -7454 -4423 0
-7396 2399 7931 0
7352 -8872 -2889 0
-3352 564 1220 0
587 -1275 -4089 0
9765 -5663 -5205 0
4924 -2181 9046 0
-9427 -5938 1434 0
-8224 -2867 7695 0
599 5577 4626 0
6880 2930 -5663 0
-2738 -9353 -9088 0
5174 -7579 -4947 0
7123 9579 7933 0
-5819 1831 -7844 0
-5781 -9996 1831 0
4912 -2123 6691 0
1611 -7938 9671 0
5915 5846 -8908 0
-3857 -8099 -3761 0
-6708 -236 -9473 0
-7739 -2102 1699 0
-6553 9728 8004 0
8861 2590 2333 0
5599 -5529 -1440 0
4447 -7534 4592 0
4931 8276 2003 0
-9459 -4442 -1101 0
-2561 1595 3692 0
278 -9226 5496 0
-2248 5855 4008 0
-4492 1458 904 0
-7541 -5070 1119 0
-5038 -8890 -6704 0
9452 -5268 -7304 0
-6298 1758 -1337 0
-5149 7115 -2757 0
-3209 1132 -1389 0
2828 4086 -8237 0
1998 -8862 4041 0
9196 6768 8865 0
-7588 7896 -6344 0
2491 8448 -1423 0
-7744 9756 -6471 0
-9590 -8091 1924 0
-695 3064 2995 0
-7574 2823 -1464 0
-7177 -9560 -7845 0
848 2113 -2572 0
-2921 3137 -4026 0
-2825 -7114 -4862 0
-3480 -4074 -6877 0
9050 -9289 -485 0
8763 -3701 -441 0
3796 9491 -4128 0
-2999 3644 -2975 0
-1975 5374 -5386 0
7250 -7174 -2530 0
3722 2165 1812 0
-2268 -7674 4453 0
5112 -753 -2930 0
3757 -8595 -3327 0
6782 -3688 -6662 0
-9896 6039 -7956 0
1489 5733 -2711 0
-6326 -9479 -208 0
-1252 9655 -9372 0
-5194 -6106 8200 0
-3714 -7720 -9858 0
613 4833 7659 0
7176 -7703 -5684 0
7872 -486 -8482 0
730 815 9401 0
4758 -5107 2744 0
-1500 -9137 -6192 0
7906 1004 -1941 0
-7797 -4618 4153 0
-6093 4416 -1080 0
898 2875 -8456 0
-1711 -8267 -4659 0
2534 -7384 6439 0
6232 8655 7652 0
-3467 -7556 1096 0
7974 5287 -2845 0
7041 -3511 -6668 0
-9081 -9246 -3080 0
-6928 -950 6256 0
-5605 -1907 5565 0
-1869 4428 3686 0
-7867 -8118 -6806 0
3111 7248 -4765 0
2058 -8037 6652 0
4540 -6867 -9558 0
-691 6795 -2974 0
-3364 5278 -543 0
-159 8431 2648 0
-3365 -6571 5828 0
3892 -8729 346 0
4899 -2645 -4349 0
843 5783 8981 0
3939 -6897 -7056 0
2113 -1370 -1336 0
-9467 636 -4226 0
-4805 -5500 310 0
2126 -4169 -6131 0
169 -1893 4669 0
-5832 -3093 -9900 0
-8921 816 1457 0
-1412 -8144 8296 0
-659 -7291 -6473 0
2324 3923 8466 0
-2903 4124 -1682 0
-2625 -4896 7219 0
2222 8631 -4851 0
-3375 -611 1690 0
1033 2071 2773 0
-4352 2069 -3640 0
-7407 7801 -1631 0
-6758 7391 -1891 0
3029 -4665 8726 0
9175 -4925 -3216 0
-6429 -2756 8093 0
-6462 3591 -9921 0
-7436 4686 -5684 0
5049 1558 2940 0
-6882 -3758 -2812 0
4913 -904 -7205 0
-3934 6067 -5062 0
-4965 4186 -902 0
8997 -1294 34 0
8742 6168 -7132 0
9586 -73 -2585 0
1138 -7063 -530 0
3761 -7423 -4076 0
9555 -7456 9556 0
1255 -6821 -2613 0
8885 98 8382 0
8002 2316 2811 0
9973 4495 9139 0
1792 2698 3526 0
-1687 -2721 3215 0
8093 -104 6895 0
4807 -6064 -6963 0
-5672 7475 1497 0
-3958 -4624 -9457 0
-3462 6623 4071 0
3590 -6444 -325 0
-954 -6096 2837 0
2809 8829 -293 0
-8276 -1526 -4634 0
-8762 984 -6126 0
4233 641 -5751 0
-6058 1363 -8076 0
3841 355 2396 0
-7713 -1993 -9294 0
4536 -9714 -9529 0
-2429 -4227 4044 0
-6163 9003 4312 0
-3820 -3106 -7400 0
-2332 -4765 -1583 0
-7146 1548 8786 0
2655 -4366 -5985 0
-5201 5682 -2266 0
-8926 6814 2719 0
1174 2291 500 0
-2212 5757 5249 0
8216 8745 -7688 0
-8104 8068 -4209 0
-3143 4220 -4670 0
732 -6228 -9619 0
-4565 -1752 -1393 0
-2862 7677 -3157 0
1857 9292 -2 0
134 1064 -5135 0
2340 4568 8715 0
-1005 478 8554 0
-2690 7646 4994 0
736 -6067 7190 0
6753 -1531 -4748 0
-9797 -3605 3506 0
9553 -9412 -9599 0
-7182 -4609 7372 0
1471 -8810 -262 0
1666 -2631 5184 0
5046 -2630 2215 0
-3186 6028 -6627 0
7888 5122 4974 0
-6120 -6310 5974 0
-771 4361 5837 0
27 -7613 -213 0
2929 7386 5271 0
9932 -319 7780 0
9026 3514 -4170 0
-5909 1171 8631 0
-2465 3023 -8226 0
6817 8093 -9716 0
7452 -1739 -6639 0
-255 -1297 4826 0
-7429 -592 -6623 0
-3338 -3894 5857 0
-7290 6881 -9138 0
-8598 9618 8799 0
3915 -7939 -7785 0
1637 988 7265 0
6844 1678 -2832 0
2836 3634 4643 0
6421 -352 -2171 0
-367 7460 324 0
4867 2569 7950 0
-4817 9841 6906 0
2342 6969 5879 0
4658 -2777 6232 0
2609 -6930 7571 0
3011 -4662 -4948 0
387 -2670 5594 0
5202 -6416 9448 0
7602 -5601 1713 0
-9069 -4751 -3259 0
5929 5777 -7036 0
3951 -9073 -8124 0
-4962 7347 -181 0
-4734 -3846 80 0
791 9696 3038 0
-8550 1220 -2667 0
7430 -9457 -2279 0
5518 6371 -3314 0
3113 -8146 2916 0
-7533 3106 8178 0
-6396 5398 -6745 0
3541 750 9218 0
-2366 -8163 5354 0
5550 -6345 3331 0
2464 7486 -6774 0
1052 -8913 3817 0
-1299 1329 556 0
2101 -7939 -2311 0
4729 -5051 -8956 0
-6994 6403 -5066 0
-4427 1820 -1726 0
1299 5093 -7617 0
-1987 -8997 174 0
-3644 -6474 -3961 0
9666 5876 -4247 0
3074 -5267 3688 0
9100 473 -113 0
-1695 -7861 4460 0
5855 4460 9792 0
976 8014 -7822 0
7447 -1598 4150 0
9226 623 791 0
-7784 -3388 4332 0
4367 -2295 3299 0
1382 6100 -5329 0
-3543 1560 9540 0
7226 -6570 -9211 0
2954 6899 -7969 0
2170 9975 -3332 0
-5195 -1933 -4625 0
1355 5015 -4369 0
-5532 -6482 219 0
-6686 -9787 8709 0
-9202 -7466 -8598 0
-8652 3726 -7211 0
2568 -4645 -9652 0
-3348 6829 -3788 0
7650 8689 -5682 0
-7743 -842 -4263 0
-1144 -8807 -6231 0
2518 -5215 -9309 0
3255 -8194 -7534 0
-1295 9109 -1145 0
7941 5299 -2371 0
7463 6099 9935 0
-437 -3150 -8625 0
4158 5838 1211 0
-3147 -9411 -2493 0
1638 -8027 -5822 0
3485 -2352 4242 0
4257 6961 8331 0
-8515 -8549 8192 0
1895 3360 2034 0
-7156 5214 -486 0
7344 2494 1383 0
-4590 -7612 -7623 0
5602 1112 -6232 0
1471 2412 -6636 0
-7370 -5240 -2475 0
7072 6763 -8315 0
-6726 -222 -8371 0
4858 -1741 8343 0
-5584 -4404 -7672 0
-6805 -1448 8218 0
-4801 -9039 9326 0
-3710 823 -1594 0
3728 4624 9127 0
-338 1965 4392 0
-900 -6362 -7546 0
-95 -2489 8198 0
8868 -6085 8139 0
-1153 -4602 2106 0
-7823 3029 5690 0
-8818 -29 3957 0
-9628 684 9467 0
8994 2517 8632 0
-4300 1079 -4448 0
639 -527 8703 0
-9732 7891 -6350 0
-9260 9526 -6093 0
7680 2846 7501 0
-9508 102 9282 0
1082 -440 -1926 0
8548 -3103 -1178 0
-2574 2965 7709 0
1841 -4365 4891 0
4099 3218 2255 0
-6417 3764 -5602 0
-3683 5338 -6617 0
-8085 -4706 2755 0
1310 -2237 -611 0
9542 8015 -6933 0
7761 4470 5642 0
-751 7632 8560 0
-4338 525 6761 0
-6222 9863 2415 0
4142 6748 4174 0
7570 -1271 9276 0
129 -7739 5773 0
320 -362 3580 0
1196 8190 3159 0
4570 -2018 -458 0
2688 500 5398 0
1255 314 2179 0
1472 -5807 -2948 0
-1772 -6398 -1386 0
-837 1440 -78 0
-1661 5487 6545 0
6094 6494 -1916 0
9110 -1785 -7613 0
213 -7520 6848 0
-1965 -1940 5130 0
4897 5379 2051 0
-525 1494 4868 0
2866 9591 9889 0
-9312 7665 3531 0
-5858 -5761 7130 0
8972 -9801 58 0
3347 -3440 1668 0
6818 -2571 -7502 0
8038 -1014 45 0
9199 -5518 -3664 0
5331 -9471 8181 0
-2783 1216 8001 0
-5949 2715 9846 0
-5152 86 -891 0
2165 -4984 -9027 0
-2135 -6552 -6826 0
5173 -4586 3973 0
-9716 -9758 5154 0
-9829 -3697 -8393 0
8782 5271 -8232 0
-2496 -4304 -5683 0
9944 -7657 -4235 0
8152 -8709 -9884 0
2231 8477 -9585 0
-7845 -7744 -9989 0
-8709 -2080 7839 0
-927 7013 5553 0
3553 -5989 8603 0
6489 3454 5550 0
-6426 -3574 -3042 0
2899 3148 347 0
-448 -7810 -7231 0
5373 -405 7543 0
9837 -7566 9777 0
-991 -1373 -7093 0
2605 2745 589 0
4866 4855 -9901 0
-8947 -60 -2125 0
4380 9212 3841 0
-6436 3041 -354 0
6452 8463 813 0
-7469 -2453 -5379 0
-993 2982 5552 0
4718 -8191 -3691 0
-8864 -6321 9261 0
3374 -2467 -5652 0
4925 2201 2397 0
-8311 -4085 -4995 0
8027 4391 1931 0
-1406 7054 -3973 0
-7329 5242 -2875 0
5248 -6269 -3610 0
-6880 -3452 -5501 0
-4038 1857 -9892 0
5171 5943 4470 0
4372 -7580 -5423 0
-6583 3588 1085 0
1961 3933 -6081 0
398 -7534 4721 0
-705 -3951 -4302 0
-324 -4806 9782 0
4280 -816 -9829 0
3084 -6716 -6151 0
-4532 9324 -8074 0
1749 -7444 -3254 0
2546 1938 274 0
4293 -5154 2433 0
4467 8788 -9912 0
6720 2107 263 0
5832 -2875 5514 0
-552 -6735 4509 0
-5525 -3189 -1075 0
8610 1601 -7974 0
3285 -6842 5124 0
5206 1400 -6873 0
-1110 -4249 9126 0
2264 165 6750 0
3499 -5822 -5539 0
-7804 -8656 -2250 0
-226 1271 8283 0
-1114 -6530 5078 0
7224 -6288 -8095 0
4938 2762 -6569 0
316 -4814 -9557 0
-665 2064 -2066 0
9959 -3907 7428 0
2560 -6284 -8117 0
-5424 -628 -7534 0
-7113 2688 -7870 0
8142 -8104 3849 0
-4779 9328 7327 0
-3383 -1235 -1915 0
8386 -1428 8495 0
-1330 -3285 9673 0
-9565 8705 6159 0
-6176 -6571 370 0
-3606 -9515 5946 0
-8668 6430 -7665 0
-7125 -4521 6815 0
-8720 7368 145 0
-5426 9965 8083 0
-6334 4765 5569 0
7094 9710 -2543 0
2924 5946 -2371 0
9893 -2067 -3327 0
-2761 757 -5719 0
-7870 -9850 4577 0
5357 7904 8579 0
1431 7069 2881 0
6465 -8238 -802 0
-5803 3229 -5279 0
-668 -5883 402 0
9176 7438 -3877 0
9931 1379 8325 0
-8841 976 4711 0
849 9959 5750 0
1277 9373 -4034 0
-9710 8386 -2066 0
-6579 -4432 3177 0
-6242 -2998 7159 0
2536 -7606 -8074 0
-7807 -4410 -6440 0
1271 7305 1760 0
-4287 8196 -1678 0
2587 938 -3716 0
3835 9890 -631 0
64 4902 6632 0
163 -7319 766 0
4070 7593 -7138 0
-4260 7717 6080 0
6797 -4187 -6916 0
-2757 5472 9723 0
-2298 8921 -1388 0
6323 247 6293 0
9933 8197 8901 0
-3508 -7344 -8372 0
1063 -6374 4047 0
279 -7046 6819 0
1454 -4649 4020 0
1765 -4385 -9530 0
7304 3694 151 0
-2991 4087 485 0
5430 -7952 3407 0
-9008 -9256 5518 0
2566 3729 5808 0
-4268 3207 -5607 0
-929 -9588 6885 0
4983 4421 412 0
-8225 -2848 3560 0
-335 4669 6357 0
-3890 6191 -6666 0
-2498 -1500 -9724 0
8635 2273 8791 0
-1132 -7613 -934 0
-8733 -4289 6651 0
-617 4114 -2647 0
5034 -5024 -4763 0
7867 -4733 3222 0
-3472 3478 -4621 0
6891 -6875 9092 0
538 4086 5079 0
-959 4536 -7814 0
-478 -9988 -9493 0
2342 -7793 -6250 0
-2763 -2212 9868 0
5795 5573 -7554 0
-8805 2081 1019 0
1639 -9591 -1623 0
31 4698 -3526 0
649 -824 -4137 0
9665 -1601 -6734 0
-4788 7356 7893 0
-919 -7473 7850 0
1313 -4019 3639 0
6757 -9389 9666 0
4232 -6271 -3742 0
-3691 4641 -6809 0
-177 -9404 -4533 0
-515 7213 -4972 0
-307 -641 3915 0
-6607 2308 4219 0
-7583 8869 8161 0
-6774 5538 -4080 0
1549 -424 -3060 0
499 8977 9142 0
4176 1021 6827 0
4900 -1590 7635 0
9518 7229 -2448 0
8928 -8523 -1002 0
7395 -4866 2914 0
-2540 -398 -8247 0
8180 5045 -1483 0
7581 119 -9543 0
7258 -5824 -3077 0
8278 879 -5914 0
6943 -9269 4762 0
5810 -4451 -8159 0
-4575 2456 -9954 0
-7854 4828 -5211 0
-152 4819 9890 0
-6854 -9682 4946 0
-4812 1657 8437 0
448 -503 4111 0
-8495 -4842 -6392 0
-6285 -5134 -854 0
4020 7782 -2255 0
-3505 2736 9656 0
1906 8358 3075 0
4664 762 -4694 0
5741 4193 -8138 0
3715 -4601 -9845 0
-2362 -4651 5819 0
-1945 6001 -9546 0
-1189 4793 -3460 0
-8916 9440 -326 0
-1034 -5081 -3921 0
3381 -6312 8063 0
9716 123 -9275 0
-4085 -8935 537 0
-6555 762 2668 0
-2770 -1848 -3043 0
-4449 9387 9389 0
8407 3846 -4470 0
8729 -4004 574 0
-4387 -6865 -7220 0
-7659 2596 6180 0
8270 2191 6403 0
8371 -723 -5805 0
3840 4891 1981 0
2907 -3682 -7089 0
2154 8915 -4386 0
-9225 3681 9790 0
-5452 -9873 1025 0
-7320 -5415 -6840 0
-2362 1541 -804 0
-4518 8457 2761 0
-4459 8569 -7215 0
-9470 4537 -5769 0
-8919 7418 -7152 0
-5011 445 6720 0
-7385 -3646 7213 0
5104 -4208 -3250 0
-8656 -3666 6031 0
-438 1105 415 0
-5508 3823 8809 0
-7817 140 -7241 0
-4134 -8994 -8207 0
576 1183 -6538 0
8869 2192 -3883 0
4420 2578 7784 0
5689 -8653 -4696 0
-5312 4312 1718 0
5722 -8756 -9903 0
4997 5088 1989 0
-7744 7208 2174 0
7967 3299 -9988 0
-1039 -3571 -4666 0
-6427 -7750 808 0
6101 -2028 -10000 0
-9255 -691 -6426 0
8469 -3479 -362 0
-5970 -4996 -3779 0
-4252 6628 1037 0
-2626 7573 8146 0
8050 -3634 8678 0
-1521 -8367 6688 0
-2528 -4342 -435 0
9872 -3427 -9049 0
3509 2156 -4583 0
-6402 8817 4049 0
-1128 4168 -4523 0
6436 -3335 -9913 0
6712 3334 1371 0
70 -9300 -2920 0
-807 2611 215 0
5160 2944 8325 0
-1642 6601 -4142 0
-5057 2172 -9244 0
-181 2387 -7460 0
4397 -6048 3415 0
-9542 7368 -998 0
3505 -560 -8574 0
4641 -4491 1641 0
-1874 -7979 6782 0
-7838 -5538 -4007 0
-2211 -2323 1433 0
-1527 -6793 -7704 0
1700 -8135 2283 0
-6298 -470 -8130 0
2391 -3104 -6831 0
-3459 1794 1815 0
3475 -5410 -2657 0
-9559 366 9603 0
1296 6928 -3916 0
-8898 3639 1193 0
4435 9419 6415 0
-3660 7790 9438 0
5674 -1932 -651 0
4051 -9537 4657 0
-8616 -341 2341 0
-5143 -8347 -1429 0
-6864 -8361 7099 0
5456 4186 2142 0
7894 261 -1646 0
3755 -7423 8928 0
865 4878 6895 0
2561 7471 -3703 0
-714 8804 7167 0
-8274 -3349 6046 0
8367 2974 1486 0
-4994 -6973 -645 0
-7883 5522 3467 0
891 3341 -7053 0
-5150 -6066 -8476 0
-4407 5219 3884 0
-6476 -7279 -6410 0
8470 -5851 -4013 0
1300 -7009 -783 0
-9645 594 9063 0
-1526 -3512 -517 0
1137 -4570 1021 0
8401 9216 -8527 0
2593 -456 1770 0
-3625 -7639 -622 0
-829 -2715 -9688 0
-6123 -2676 -1830 0
2527 2733 -4876 0
-9846 3491 -8482 0
2959 -6636 5572 0
-2498 -7501 7929 0
-6000 -1883 5622 0
-6463 -7658 -3357 0
3252 3873 -3250 0
1381 -440 -778 0
4618 8189 -8167 0
5260 1168 -1917 0
-5511 3612 399 0
-3576 6634 2316 0
7473 6191 -1846 0
-9143 -858 255 0
-1094 5162 -8977 0
-9705 -9284 9555 0
4748 -517 9981 0
1860 -11 -2557 0
-2543 9222 2424 0
-3362 -264 -7459 0
269 -5355 8798 0
-5337 9426 -9872 0
-7971 8038 6646 0
7628 -787 -1644 0
-5252 2150 1105 0
-3354 -4956 4836 0
-6734 3509 9599 0
6502 -6072 9977 0
7877 -9407 4223 0
8201 -2074 3910 0
3313 3304 5127 0
-4940 -3046 -3995 0
-6811 -9838 8016 0
-7252 632 9279 0
-220 7256 8504 0
677 531 5704 0
-576 8515 -9804 0
-9727 -6294 -9623 0
-6749 4548 -700 0
5479 9479 2799 0
6943 4971 -4575 0
3959 3288 -3730 0
-2100 8548 -8919 0
1441 7473 7556 0
-6856 3087 -7298 0
-4655 5779 -8906 0
-9739 5175 5358 0
5691 -8332 -2914 0
-8274 -3409 -463 0
5508 -7258 7497 0
-3817 -2916 6278 0
8202 6846 1462 0
9207 9748 5098 0
-9477 -4713 -6006 0
3783 -6807 -8303 0
-3282 4221 -6405 0
7784 -7143 -3820 0
9813 7865 -6273 0
-4962 395 -8646 0
6308 -9033 -141 0
2343 -1604 -672 0
9891 8230 6531 0
-6292 -2937 8211 0
6143 -9854 -2932 0
-4429 9681 8645 0
-6131 8508 3482 0
7937 -6344 -2163 0
-6271 3484 6710 0
-2213 -9626 4129 0
-7778 -9637 -6655 0
489 -7673 5317 0
-3455 -694 -7861 0
5932 3496 -6597 0
8731 1628 -9111 0
-4747 7478 6119 0
-8904 7083 -7618 0
5489 -2443 -989 0
-8988 2814 7480 0
-6519 -8113 -6224 0
3394 -226 -911 0
-7584 1294 -381 0
-4957 6022 -1186 0
-7782 -8102 3546 0
-1111 -7698 -7982 0
6095 2685 -9215 0
-832 1328 -6682 0
4952 1087 3837 0
-6289 1705 -8663 0
-9444 309 5078 0
2480 9918 9593 0
-645 -4995 3297 0
2400 5373 9434 0
3265 5971 -6690 0
4372 8020 -3690 0
9719 4689 -9801 0
-8924 -2328 2725 0
-2491 -150 -5759 0
-6332 -8544 -5363 0
2772 1128 7471 0
1828 7238 -2894 0
9789 1628 4180 0
-7540 4143 6485 0
-6259 4191 -6445 0
4649 -1617 8654 0
-7260 -9746 2952 0
-2551 -3880 7170 0
1725 -2941 -506 0
4510 -9201 -4743 0
4197 -4435 -9353 0
-735 -8694 7440 0
-7608 4086 7763 0
2285 -780 6031 0
6888 7060 -2979 0
-2735 -8601 -7099 0
-4886 -8295 8085 0
2144 -6343 2695 0
3533 -2221 7167 0
-2288 -3803 -1739 0
4120 1706 -5431 0
-9442 -1599 -3206 0
6522 -2709 8218 0
-3999 -2897 -5906 0
-516 8006 -3897 0
6553 6006 -3830 0
-8310 873 7457 0
5217 5896 3232 0
3036 8129 2190 0
-3258 -7872 -3273 0
-7266 -3173 7897 0
4569 4363 7089 0
4268 -692 8738 0
-3571 861 9726 0
7641 -9197 -8023 0
-2588 -4017 7429 0
-2733 -9768 -7257 0
8509 1993 -1122 0
-9913 -8505 -781 0
343 -7654 -3620 0
-2527 234 -9303 0
-4827 -5614 -3791 0
-9792 -5210 -4992 0
-2382 -8913 5408 0
9380 7499 4936 0
1844 9629 1074 0
-3320 -4632 -2191 0
-8619 -576 2861 0
647 -8336 2850 0
-2596 -8782 3355 0
-7540 -929 -5061 0
-9658 -2907 7548 0
-1659 -7906 -2525 0
-9809 1800 -2143 0
1688 -983 -1322 0
3128 3400 3476 0
1277 6566 4140 0
-3726 1639 6963 0
-631 9340 5414 0
-1875 -3017 4433 0
1960 -5065 -1970 0
-2164 -3213 8399 0
6794 4089 -3888 0
2933 6227 9106 0
4848 -6895 5943 0
-8465 6559 8810 0
6569 6364 -1447 0
592 -1382 -5 0
-159 2799 4247 0
2476 3369 629 0
9141 -8884 2526 0
5645 3417 -6425 0
4200 -7489 -5566 0
-4240 3616 -667 0
7469 4733 6236 0
1225 5432 -7750 0
-5446 -4884 134 0
8831 -9330 -851 0
-1249 8175 -7005 0
-3170 8983 -6733 0
-9939 -693 6842 0
5975 5534 -7921 0
4917 -916 -4251 0
544 364 840 0
-6496 -2194 9464 0
-5597 3574 -7555 0
-6464 2065 -212 0
-5927 4401 1760 0
-1950 7335 -5256 0
9821 -896 951 0
-5761 7843 6752 0
8224 2142 -196 0
-5471 -1728 479 0
-8812 -7677 3687 0
-2229 -3981 4892 0
6491 -3616 -3937 0
-6626 7513 1556 0
2332 -9554 -1576 0
-1407 -6463 7647 0
-1101 3247 -7903 0
-8033 5879 -8887 0
-7421 8970 1427 0
4074 -7826 1930 0
2799 -5860 -5128 0
5472 5828 -8441 0
-1086 1979 -6710 0
7688 2184 -2692 0
1684 -2969 8739 0
-1725 3452 -7255 0
2612 452 -6641 0
3156 169 2468 0
7860 -9919 2246 0
626 -5348 2127 0
-3186 4480 -2955 0
9078 -4795 -8407 0
-9514 -2795 -5505 0
7174 -4073 8357 0
2972 9903 -8716 0
7681 9116 -1620 0
2556 813 -6164 0
-2865 1540 8135 0
-8801 3504 7522 0
3167 -6523 -6060 0
-1828 -720 3962 0
278 511 762 0
-7192 -1539 6942 0
9825 -747 7427 0
4372 -8080 511 0
2431 -8465 9771 0
-1409 -5822 1349 0
2744 9086 6952 0
-685 482 6016 0
-3301 -2076 5445 0
-9906 -4682 9875 0
2513 -4254 8285 0
7447 6701 -665 0
4550 147 -6497 0
4988 -2128 439 0
2730 7350 -8287 0
-1079 2664 -5025 0
-9017 8519 -8729 0
4769 9009 8493 0
1989 4422 -1236 0
6968 -3078 -2641 0
-442 -575 -1491 0
-476 6058 6685 0
-331 -2386 8231 0
3941 -3824 8959 0
-8720 720 25 0
6253 -5687 5070 0
9563 -5243 5347 0
8446 6325 -9067 0
588 242 540 0
5489 -1802 -4631 0
1748 9667 3298 0
-7013 2836 -340 0
4073 -2140 8542 0
-7428 -64 5583 0
-2019 9155 -9377 0
3604 -4762 600 0
3453 7141 -4727 0
-2181 -5565 4165 0
-2323 -1784 3528 0
3865 -7793 4278 0
6433 -1418 -3300 0
2335 1733 4750 0
-3810 2035 8042 0
2458 -6544 2933 0
9514 3431 6130 0
1701 -3483 4973 0
503 -3581 1133 0
9361 -1123 -8355 0
4197 -6054 -8620 0
-5216 126 9214 0
-3067 8955 -756 0
-871 -6823 3663 0
-5079 -4308 9035 0
-3752 7317 5156 0
-577 -5309 2058 0
4585 1405 -7507 0
-4285 -4926 -5751 0
5026 9597 6677 0
-3869 -5321 -8072 0
-1012 -6743 6992 0
-9790 4773 -5713 0
-3106 6464 3590 0
7326 -1494 40 0
3086 -2887 -2405 0
-2303 6926 8869 0
-8569 -5734 -4342 0
-4460 -1109 1339 0
4028 -4512 3967 0
2628 -7593 5005 0
-3326 7226 3731 0
8739 -2132 2981 0
-4794 9558 -8758 0
-883 -9436 -1490 0
-1193 9997 -7105 0
-3489 -5160 5373 0
6829 247 -8507 0
-1937 9087 -2679 0
4754 5414 -395 0
8515 -8834 9631 0
7444 -7656 -1942 0
-832 7197 -5407 0
-4143 5014 -1998 0
-3263 790 -3870 0
-9260 4449 -7188 0
8152 -5085 -4455 0
-7567 7691 6135 0
9814 -1105 1303 0
1469 8828 2875 0
-3361 -1443 -5307 0
7964 -220 3325 0
-2530 7609 -2356 0
-9616 -9762 4957 0
-5317 860 -328 0
-8253 -5207 3597 0
-5335 -5225 -938 0
-3774 -487 2476 0
-463 2549 -7602 0
9077 918 -4184 0
-9177 8756 -2881 0
-3171 -7903 6922 0
-1044 -2242 -9552 0
-6560 -6317 8691 0
4200 -7327 6377 0
-9490 7630 -7348 0
288 8646 -8253 0
4706 7929 -5335 0
7827 -1879 3662 0
8805 -6351 1950 0
6857 -1215 3436 0
-4704 2005 9214 0
3499 -1966 -4660 0
6691 2026 -7715 0
9328 -2124 8936 0
-5660 5256 -3509 0
-6293 -7530 -3308 0
6270 -449 6188 0
-1610 -2855 9136 0
-3083 2376 8632 0
-9189 -8746 105 0
-7169 -2826 -5920 0
1512 6622 870 0
2709 7766 1939 0
-281 -7526 1882 0
275 -8836 -3774 0
72 4131 312 0
6774 3103 3695 0
-418 -2387 4455 0
-1970 -8931 2711 0
8645 4405 1048 0
2816 3165 3888 0
-4418 -8565 -8869 0
-5482 -4914 959 0
-4316 7573 -7928 0
3606 -5080 1913 0
-6084 -2951 -454 0
7977 5910 -9726 0
1457 -8097 -926 0
-9155 4187 5896 0
-9299 -7394 5300 0
8086 -4169 -4622 0
7323 -177 5381 0
-7743 -4538 -6046 0
-5649 9644 -1093 0
5148 -6762 -7186 0
-3163 6082 -8498 0
-1155 7541 8908 0
-7273 2256 9226 0
6700 -1164 -1442 0
-5181 1682 5337 0
4679 -7845 3277 0
7389 -5598 7771 0
4786 4228 9650 0
861 5925 -1454 0
-5643 -2758 -7264 0
-1906 7451 -3537 0
-7719 2306 3870 0
-6442 7069 -6206 0
3770 7058 -3592 0
-8734 -6581 -3334 0
6364 1030 3866 0
4162 -5238 8485 0
428 -7905 -4716 0
-5423 2471 3226 0
4538 3911 4755 0
-3424 4424 -1667 0
-7190 -6354 3413 0
-8738 -5225 5655 0
1766 9656 -1323 0
-4342 9249 3875 0
-6809 1686 -1749 0
1397 -6209 1369 0
-1982 9207 7343 0
-4586 -8746 -6082 0
6908 -65 5335 0
-7524 2459 -7175 0
2070 1940 9321 0
5236 -7564 8365 0
2826 6973 -9250 0
-9693 3576 -5937 0
1468 233 -8510 0
6702 627 -3849 0
-2397 -9012 -1107 0
6015 3768 -910 0
-6837 -9045 -8972 0
7156 -4115 8741 0
1903 -4510 -571 0
-3733 586 -8328 0
-7706 6900 2207 0
6190 9676 5612 0
-714 4633 9208 0
1067 -1028 8655 0
3553 8745 -9942 0
-3678 6001 -7510 0
3373 7582 1065 0
1399 -2069 -3192 0
-8027 1969 2774 0
9048 -7855 5596 0
-142 -4988 -2620 0
-1245 -3027 4949 0
-2776 -8984 -201 0
3912 -6672 -5381 0
7748 -4848 5231 0
-5173 -4287 -6062 0
-7991 9945 -3256 0
-2448 -9166 735 0
-9827 3842 3565 0
2066 -59 -5323 0
-4485 -9838 -4072 0
2787 -3614 4732 0
-7404 5895 6754 0
-6975 -2562 -9190 0
2723 7655 2016 0
7511 1476 -2203 0
3980 -2924 5470 0
3321 1731 1370 0
6116 6004 -112 0
-6508 7082 -9871 0
-3418 -4930 -9476 0
7056 9677 -1224 0
570 -8744 -4209 0
7755 4739 -7172 0
-8073 8771 9955 0
3774 3011 3763 0
-7465 2051 -4237 0
1207 -681 -7243 0
3883 -285 -342 0
-1506 2258 6768 0
8481 -3589 -7427 0
-4834 7609 3268 0
4624 -1453 1834 0
-1884 8573 4504 0
-8682 -9 -38 0
4821 -8019 -5021 0
7439 -4420 9659 0
8032 -9446 8429 0
-2430 -3193 -337 0
7818 2696 -7497 0
-2035 746 -9676 0
7521 6209 -6522 0
7814 294 -2517 0
-9407 9218 2208 0
-3505 3773 1948 0
-2648 -4282 -4468 0
-214 8953 -2499 0
-5739 4474 9874 0
-2889 499 -1557 0
-7166 -7010 -4704 0
6829 7417 -3872 0
8176 198 -6507 0
9433 -9880 65 0
-4206 -3603 -1242 0
3760 -5819 6374 0
4845 -8966 -1395 0
9184 -5263 4194 0
5455 8204 -2598 0
6214 -4626 -4772 0
5042 -1601 1879 0
7097 -838 9627 0
9718 -7339 3560 0
8563 8481 -7076 0
-6262 8536 341 0
9679 -4859 -7590 0
-7983 -1624 2796 0
2645 -1498 -8625 0
3483 2854 -9778 0
-1801 -4567 -2650 0
-7023 4089 6155 0
7593 -1001 -2589 0
-8690 -6275 3389 0
5873 -8543 9136 0
-8600 -4202 -3753 0
-5362 -379 -6553 0
2438 -3025 9179 0
4506 6882 6054 0
-8203 2136 -5527 0
-5920 -5228 -9425 0
5557 602 -7609 0
6433 -7914 7523 0
1357 2690 -6229 0
-9096 -4423 6614 0
2857 -3717 8963 0
-6385 -2713 8335 0
-2085 2579 -3814 0
981 -5222 -4216 0
8688 6498 6629 0
-6017 -6938 2955 0
2065 2538 -7015 0
2184 -5936 4305 0
-4381 -5401 9093 0
8396 5886 8707 0
9000 -9012 -1232 0
1383 4089 6792 0
-6479 -1546 8947 0
8085 3248 -2011 0
6727 1823 6529 0
4406 -9809 4579 0
9934 -7293 -2923 0
-1803 -2610 9127 0
5988 2498 -3589 0
-4090 -4918 -4203 0
-561 -8588 9486 0
-1653 -9809 9845 0
5021 481 -7479 0
-9763 -4490 4487 0
1577 262 -1816 0
9334 2473 2484 0
-7719 -9672 3638 0
-3927 -3298 7815 0
-8031 -403 9192 0
7446 2024 -921 0
-8256 -6777 1656 0
6846 -1370 -5567 0
-8822 2762 3644 0
4391 -3873 -9488 0
7439 3212 6216 0
-2918 -2705 2917 0
-8105 -3738 -7435 0
-4154 6203 1842 0
-7207 -8876 778 0
839 -2460 -5436 0
-4015 2426 -1145 0
-694 8352 -7606 0
6525 -2374 7695 0
-2986 -9838 -8263 0
-3388 -2553 -2625 0
2689 6936 -7276 0
-6693 2878 -464 0
7362 6089 1068 0
-7708 -1615 -4921 0
8418 -8792 -5587 0
-9740 -4500 -4711 0
2947 -9463 -4698 0
9842 -2795 -4360 0
-952 6303 -250 0
4304 7555 6723 0
-2225 -3918 5909 0
-1955 7951 -8797 0
-958 3967 5148 0
7410 -9448 5895 0
7635 -7958 -5435 0
-3711 -2147 9291 0
9415 8832 -5826 0
2994 -5263 -5719 0
7406 7132 -822 0
-4966 -7830 -8988 0
-3215 846 1556 0
6075 -1629 -8834 0
6022 4443 -6646 0
-7008 -1488 758 0
1501 -5699 2486 0
-7723 9996 -4979 0
-5803 -5061 2677 0
-7526 -1062 -5494 0
-8431 8779 -4020 0
8714 506 -8322 0
1612 6797 2714 0
1231 7551 -1947 0
7084 -9709 -5548 0
8594 5784 5279 0
-8886 -5136 -4168 0
6861 6251 1823 0
7034 9089 -1536 0
-4149 3334 -3415 0
2075 -1098 -98 0
-7344 7093 1389 0
-9810 -6872 2566 0
5616 -6947 498 0
1696 6088 1332 0
150 6066 2808 0
-7913 -9142 4000 0
-6645 5820 -4042 0
-9017 4970 -9182 0
8572 -8094 9426 0
-1339 488 9722 0
-7638 -5854 2212 0
247 6578 -9670 0
-5159 1995 4612 0
9333 6364 -8558 0
388 -8209 5669 0
-5706 -3297 7020 0
8571 -6985 5521 0
1060 5946 898 0
7996 -7036 -1167 0
-1744 4581 8652 0
-5574 -9521 169 0
-7226 -8097 -6716 0
4560 2527 -7456 0
-3337 4068 -2935 0
570 -3757 8378 0
658 -9668 -1451 0
4345 -2616 2561 0
33 -7860 -5799 0
-5396 4531 4563 0
-6575 1523 4461 0
-4705 4530 3011 0
-7483 8641 9516 0
1403 7532 6009 0
-5528 -8946 1554 0
5652 3856 6934 0
-9833 -5202 6859 0
5275 -448 -5310 0
4573 6221 -9838 0
-1931 9641 -8211 0
-4322 -1716 7962 0
2913 -4783 -1081 0
-5544 4168 9374 0
-8509 4208 2499 0
3014 8505 1969 0
-5267 6851 -8273 0
-6421 9717 -9968 0
-3662 8589 -6961 0
1482 1428 -2365 0
2090 -512 9947 0
6849 9702 -7636 0
-4024 -100 -3168 0
-668 235 -4524 0
-4667 -3414 6293 0
4000 -6782 304 0
-1099 -1817 -8017 0
4289 3139 -6996 0
8391 9812 -5065 0
4481 -9389 -4939 0
2751 -7948 -6747 0
3219 -7940 -4720 0
2476 -2710 8244 0
6909 -629 7717 0
8010 -5238 -1629 0
-7439 -6123 4586 0
2916 -3042 3567 0
7919 -4819 -7573 0
-4016 3193 -8841 0
-2105 8338 306 0
7170 -265 -8044 0
9029 -7020 -4319 0
-3982 -8763 173 0
2300 -9185 -2601 0
-1038 8765 -4378 0
-4579 3479 -1055 0
-4751 -5978 -5446 0
3305 -3244 -7823 0
-4233 -1606 4412 0
-8696 -4703 6598 0
-5722 1334 -5171 0
91 2464 -2388 0
-6408 -9287 -5755 0
7525 -8112 -8611 0
8107 9991 3419 0
-7179 -8646 1234 0
628 -2501 3200 0
-4131 8035 -8586 0
-6047 4129 -470 0
-8274 -9462 3682 0
4373 236 -5397 0
-7874 3420 -945 0
6456 -4124 9502 0
-2866 4241 -3493 0
9925 -4087 -6793 0
-9007 -9930 -9079 0
1726 8990 -1815 0
8179 5475 4920 0
-2388 -5284 -854 0
1993 -5166 -706 0
1255 -9497 -9981 0
7774 9095 -4726 0
-1021 -6576 -5124 0
-195 5734 -3016 0
7589 3150 -2998 0
8436 -4459 -5004 0
-105 -5875 611 0
-9668 1146 -5431 0
-2645 -1108 8580 0
-5135 1332 949 0
3322 9561 2680 0
-949 -8564 -7175 0
-9372 3868 1763 0
7070 -8162 -5634 0
4295 -7808 7681 0
6823 -9836 -2763 0
2571 -6925 4323 0
3917 6624 -731 0
-9264 -4527 -8463 0
-9759 -7707 5246 0
9214 -7507 -560 0
576 5986 3211 0
2639 -9923 8571 0
3254 -7990 2294 0
4196 3341 8828 0
7905 -9039 9604 0
-5235 -9243 9315 0
-7780 -2405 -4001 0
752 2536 -9282 0
9761 -4945 2334 0
1865 -9119 2356 0
-7942 -1939 8798 0
-2230 7800 2090 0
-3256 5189 4323 0
7561 -948 -7346 0
4701 -1910 3929 0
3612 -5491 -8704 0
-1471 -5790 -7816 0
-4801 -3893 9289 0
-4067 6248 9421 0
-4656 -4698 9916 0
-8184 2173 1444 0
6135 5184 6142 0
1006 3631 -9177 0
4423 -8087 5892 0
5462 -4267 -4660 0
-4863 7541 -6322 0
-253 -3102 7058 0
-1276 -6744 8086 0
-2873 -9218 -71 0
-580 -3832 -4748 0
7987 5136 7656 0
-2185 -5909 5000 0
8074 2235 1789 0
6408 9036 -6574 0
-8713 4649 6270 0
-2581 -8505 -8939 0
-3195 1132 -5180 0
6352 -9461 5030 0
3826 373 -2459 0
-7650 3915 -3597 0
9993 22 5423 0
9756 377 -5405 0
1178 -8149 -1718 0
5563 2300 6727 0
-1845 -32 738 0
-798 1108 -8890 0
-112 8059 -2974 0
-6788 3756 5851 0
5513 5020 -4891 0
3257 -734 -4939 0
-1538 -7145 7300 0
-5393 -1759 5261 0
-7188 -2106 6570 0
6568 -8344 -1273 0
-5420 8079 -750 0
450 -8073 -2991 0
-308 -9602 -2357 0
-9118 5004 8130 0
-1077 -6021 6416 0
-3101 -4888 -8005 0
5237 645 -6514 0
-3022 -3685 -5616 0
8798 3045 -825 0
7643 4832 -8978 0
-7135 -8685 2352 0
-2551 8666 1542 0
2453 2515 524 0
-4378 9177 9188 0
2086 -8498 2865 0
8636 -3877 -7754 0
-7188 9984 -2420 0
-3388 -7743 -4349 0
-6658 7112 -5123 0
2023 -2432 -3971 0
5985 1880 -4102 0
9084 -2995 -1902 0
8587 7075 7155 0
-1348 -1861 -3461 0
-4884 7092 4830 0
455 4690 603 0
96 -6450 -8635 0
5257 3100 -4716 0
-1333 -7635 748 0
-2935 6261 8112 0
7715 918 -3602 0
4058 5031 1564 0
5058 9174 -3607 0
178 -785 -1129 0
511 2143 -3864 0
4207 2575 2490 0
1847 -728 5535 0
9677 7413 -9885 0
828 5900 -6030 0
-5010 3628 -8324 0
-9643 -772 -6139 0
-8738 3813 6783 0
-5068 -2238 4328 0
1486 8907 -9031 0
-6583 -794 3714 0
845 -1150 974 0
4192 6126 2570 0
8872 -5945 2759 0
909 -7436 -3660 0
2025 -7223 -9185 0
387 8441 2738 0
-1341 -4754 -2881 0
9966 7770 6881 0
8651 245 6320 0
345 -9769 -2248 0
2978 3396 -9576 0
-225 -3556 -7219 0
3929 2366 6638 0
9520 1958 -1657 0
2873 -4906 -7700 0
1187 1050 -9256 0
-7974 6985 7242 0
7611 7744 -8923 0
4162 -4632 -575 0
772 -8098 2614 0
37 -4334 4159 0
2736 6160 9791 0
2281 -5227 -6970 0
-1102 -7143 8422 0
2108 -9783 9731 0
2933 -450 -4660 0
3390 -1357 -4049 0
-8666 -142 -5372 0
-7149 -2182 7727 0
-9809 -6157 725 0
-7684 2834 -6326 0
340 -2444 5371 0
7135 -8171 -9740 0
-9118 -2988 9657 0
-8223 -6153 -9745 0
-8762 3496 477 0
6367 5120 -6881 0
6179 2222 -4238 0
-5324 -180 -8579 0
-6368 -6624 -4405 0
5941 9406 821 0
2564 -4384 -344 0
6731 -7550 -1190 0
-4815 2197 -4861 0
3149 -2326 1608 0
1538 -8006 -9601 0
566 -9053 728 0
-3135 7506 5778 0
4651 -4979 6221 0
-5819 1414 -3671 0
-2083 4302 -5443 0
-1160 7093 7894 0
-3195 7329 9617 0
1187 -3264 -2767 0
7120 -4636 -7813 0
7187 5158 -4940 0
-9092 7300 -4445 0
-9957 9727 -1876 0
415 -5494 -4346 0
4099 4979 -5598 0
-2867 1221 -1651 0
7565 1194 -4781 0
-1891 -2633 -3351 0
4446 401 8104 0
-9569 4128 5943 0
-3664 9743 4016 0
5568 -5891 -8464 0
-4330 1480 -7935 0
2482 -5673 -3964 0
4878 3901 -629 0
8794 -1082 5972 0
-4867 -5034 -6751 0
7766 -4067 -4917 0
66 -5805 7398 0
7679 6875 8062 0
-4902 8603 4611 0
-9270 3253 5560 0
-1714 -7126 8733 0
-2348 -7585 -1620 0
9418 -4612 -7127 0
-7304 -6044 -7143 0
-6119 -9550 -751 0
-6421 -8593 -1876 0
9845 -4032 -5196 0
-6890 -6906 -8616 0
-6712 -875 -578 0
4287 1481 -3149 0
-8957 1143 -8977 0
993 -515 -118 0
-8329 5899 9285 0
9493 7041 2330 0
-5889 7227 -2177 0
50 5637 -2020 0
7406 -4792 -580 0
6659 -1108 6466 0
-7943 6249 -5032 0
-4937 -9942 2568 0
-5879 -314 2659 0
3339 -3512 9162 0
-939 -7107 -9629 0
123 7872 5888 0
-1904 4715 -8720 0
-4480 1136 7216 0
7211 4314 7684 0
4600 -4589 -7010 0
-207 3786 -66 0
451 7391 3681 0
8302 2174 -542 0
8955 -5974 -1944 0
9042 -3611 -2738 0
-3068 6392 824 0
-2867 5342 1733 0
-2268 -5425 -6503 0
6349 9873 3148 0
-1213 3581 5251 0
4491 -6166 -1026 0
-5748 -3505 4395 0
-9011 -2900 5798 0
9910 9661 -8935 0
-5074 1708 8822 0
-9512 3858 -4457 0
8289 5181 -3583 0
-7635 8417 -6021 0
5647 -6373 8354 0
-2260 -339 -8946 0
1188 -3658 -8208 0
-9944 -5579 1732 0
8239 -8187 -6894 0
8197 -2511 4213 0
-9297 6679 -284 0
1208 -3418 -7652 0
1958 -2826 -8465 0
2369 7286 -106 0
-2847 5119 -4737 0
-3756 -5246 8129 0
3452 1418 1247 0
4758 -2998 -8820 0
-8712 -5394 2710 0
954 2474 -1146 0
-9806 -1737 1160 0
807 6253 510 0
-1134 8127 6673 0
806 6582 9540 0
815 7106 1153 0
-3339 6604 -5000 0
-5772 6095 -1068 0
-4765 9642 4235 0
8645 1188 -6185 0
-5457 6381 455 0
-3275 -9517 9223 0
-551 -6220 9085 0
-2930 -3467 1934 0
-7854 7342 4520 0
-9816 6828 -2098 0
-7123 8111 9667 0
4000 -7707 4480 0
6580 9674 6329 0
-4204 7282 -2054 0
-2273 8566 -5665 0
8026 3897 -6562 0
4800 -6540 -4263 0
-6383 3633 8950 0
-1027 -5592 -3507 0
-4865 2450 -6722 0
-4763 9094 3710 0
7568 -1404 9054 0
6262 2536 -3820 0
-7020 5616 -7926 0
8210 6445 8963 0
-6016 -7872 -4775 0
4896 -6579 -1441 0
5459 5857 9098 0
-7052 561 -9229 0
-9276 -4980 -527 0
-241 -7979 1633 0
7039 -7238 -3904 0
7048 5663 423 0
-5503 -3475 5425 0
8683 -1035 7095 0
-5550 -1778 -64 0
8588 8843 3681 0
956 8966 279 0
3717 8504 8198 0
9017 -2589 5326 0
8833 -2292 5012 0
-2286 3783 5593 0
9553 -5366 -8903 0
-3722 7611 -8601 0
3533 -2983 4431 0
-3262 457 -193 0
2021 -7174 -6038 0
-8786 5580 2691 0
-948 5201 -619 0
4303 4154 2566 0
-940 3569 8943 0
-2845 -6398 7005 0
2089 -2510 -1501 0
1316 5498 -953 0
6192 7168 -8899 0
-3568 -4002 5977 0
9061 -7905 5351 0
3528 -7208 -4356 0
2594 -3718 6220 0
-6538 -1628 653 0
4745 2776 7607 0
-3997 -3907 -131 0
1379 -7164 -2560 0
8235 1482 -9511 0
-8633 1394 -3200 0
6252 -4598 -7703 0
-954 -5376 -3260 0
7375 6581 -9192 0
6075 -5788 9666 0
-119 -7541 7802 0
1323 9205 9706 0
-1165 -8811 2565 0
4269 3885 9793 0
5847 -2428 -7369 0
6872 -3844 8527 0
9828 1853 4851 0
-9540 6169 6787 0
-8653 8873 -6034 0
-9938 -2829 8683 0
-5176 2955 -3167 0
357 -4230 9424 0
8429 5892 9060 0
90 -8265 -477 0
4051 1353 -8217 0
-3792 3087 -316 0
-3582 -6237 -6000 0
-8709 9155 -4609 0
6893 -5179 -4864 0
4902 -4500 -8136 0
9726 -624 2418 0
1694 -9597 9887 0
3709 -3133 -646 0
4874 5574 -4658 0
-340 2706 122 0
1259 -2404 6506 0
-4991 -2524 5791 0
-9507 -8971 -7508 0
376 -3205 7861 0
6213 -9377 7540 0
5101 4297 7958 0
7722 8777 -7188 0
10000 -7248 -9189 0
8599 -8885 -7028 0
3373 1108 7630 0
-843 9719 -1159 0
-5126 8582 3965 0
-9839 -362 -9375 0
-9817 -4345 3557 0
-7730 9498 1939 0
-7053 -479 -3065 0
7203 -1093 4025 0
7746 8957 5035 0
-695 7310 9408 0
6196 -3863 9197 0
-4748 5685 -6500 0
43 -6752 -2394 0
4737 1471 1053 0
1728 5430 7893 0
3604 -5197 -6136 0
-3720 -340 -1973 0
8262 6954 -8054 0
3319 -160 8195 0
3799 3735 -5550 0
-1197 8168 9693 0
-4523 -7166 -4388 0
7178 -5941 -7603 0
5174 -5592 6118 0
387 -9778 -8893 0
-2418 4936 4897 0
-1078 -6156 -7415 0
5255 -9073 4990 0
9960 4978 -4074 0
3210 -9372 3799 0
-1910 6926 -7614 0
-9216 -3972 -8877 0
-7000 -526 -5541 0
-2321 7798 -6315 0
-307 -1559 452 0
1675 -9577 3971 0
-2334 -3491 -2599 0
6129 -8812 -4284 0
4753 -8075 7745 0
560 -4711 4943 0
1587 -3482 -603 0
-1286 7436 5976 0
-931 -8889 -4110 0
-7279 -2471 -4082 0
-6775 -5501 1540 0
-7442 -1297 3292 0
-2063 8382 6614 0
9323 4532 3281 0
-1819 4890 -337 0
5295 5908 7883 0
-5371 1092 4548 0
8138 3053 4935 0
-45 -8707 2435 0
1232 -3803 -57 0
9713 1577 -159 0
4178 5197 8719 0
8165 -8446 -8306 0
2849 -1621 -1823 0
-8439 -8912 -5420 0
-4755 -9307 -3781 0
-3406 7320 -9810 0
-8743 1408 2831 0
8317 -3994 5450 0
617 4953 -373 0
6232 -1776 -5632 0
-5880 -8949 -9395 0
703 2246 -8622 0
3112 -5879 -5579 0
-4152 3027 -1430 0
-4891 7915 -9982 0
-5602 2940 -9113 0
538 1735 -7703 0
4394 -7347 2458 0
1217 3514 400 0
127 -7613 8411 0
-3643 1229 -9540 0
9942 8824 3527 0
-8662 -1988 919 0
9800 -7124 4746 0
8912 4084 -9049 0
-4669 6683 -7920 0
2759 2072 8785 0
-5032 1228 -2295 0
5469 3632 -5194 0
3449 520 -1080 0
8274 8426 4178 0
6737 -1804 4112 0
-9196 1551 -7680 0
-7281 5141 -528 0
-8823 -3504 8152 0
-2863 8578 2411 0
5176 9030 -1208 0
-391 3016 -4072 0
-2001 5702 -5784 0
5060 -8668 -860 0
5883 -5784 780 0
-7456 1003 -4866 0
-1509 -8355 -5480 0
-3571 -9175 -6384 0
299 -5155 8315 0
8702 7865 7943 0
-1291 4377 1203 0
-6791 -7588 5091 0
-5150 -5584 5969 0
4700 -8320 -8162 0
-6716 8638 9056 0
4561 -2685 -9327 0
9161 -3745 1514 0
2115 -2402 -1375 0
-3678 -4035 -2607 0
5698 -1336 7578 0
9657 1872 -6008 0
-4198 -3293 1950 0
-4123 -4005 2179 0
-1033 -9748 5246 0
-4989 -3392 -3213 0
2576 -2200 -2765 0
-9214 -7561 -3838 0
-4776 7482 -5419 0
-6091 5113 2450 0
-9655 6256 -7269 0
9052 5430 8781 0
-7671 1440 -8666 0
8092 -4255 1437 0
-8213 1876 -1190 0
9195 -7600 -9675 0
5565 6471 7675 0
9756 -4277 -5770 0
-4026 -1376 7958 0
2838 7678 -8585 0
5655 -7151 -7963 0
-6452 5894 806 0
4711 -3231 6189 0
-4195 9165 -5273 0
3641 1789 -7993 0
3453 647 8002 0
-7242 -8042 -8404 0
1326 -789 1385 0
-3277 2131 -1093 0
4858 6765 1036 0
6622 -7465 -1953 0
5606 -6425 1770 0
-3465 -2419 -2490 0
2374 1885 -902 0
-8079 -5827 -8954 0
9036 -3377 -6889 0
-4474 -6825 6485 0
-2967 -7851 2808 0
3313 -2278 4801 0
8983 5132 4450 0
-5244 -8162 -9665 0
-2038 4262 -2467 0
4183 6377 1466 0
-139 9096 -1063 0
3768 -1177 8279 0
6095 174 -4127 0
8844 2197 7899 0
813 878 -7828 0
1849 -1221 9740 0
-4893 -6947 2569 0
621 1421 5579 0
2307 -539 -1395 0
7800 9875 -4619 0
4556 2187 -8357 0
-382 8733 -915 0
-5224 5013 5275 0
-9315 -8746 3659 0
934 1996 6961 0
-4606 -4511 8386 0
-7835 8787 1715 0
8593 4383 -8213 0
2398 -9587 3280 0
7297 4769 4145 0
5192 896 5100 0
2494 -8260 -21 0
-1721 9467 4146 0
-2903 4766 265 0
-6407 3494 6581 0
-6691 3196 -1500 0
7310 6519 -8154 0
-6193 -5529 9991 0
9911 7222 3077 0
-6153 5744 3829 0
2918 2709 9451 0
7241 -4361 3390 0
6424 -5588 8391 0
-4078 -9842 -4199 0
-8000 -3448 3282 0
-4973 -1078 -9024 0
-3391 213 7938 0
9376 192 2959 0
-8858 2856 -376 0
6596 3595 -3514 0
3372 -152 5464 0
-418 865 -7768 0
2474 257 -1889 0
-3728 -4973 2601 0
8366 -1685 7960 0
3226 5288 -5739 0
-212 1549 5310 0
9227 9712 -9785 0
-3280 -4402 -1077 0
1972 -5838 1610 0
-6281 -1632 9690 0
224 7949 -6023 0
-2999 2479 4589 0
3847 -4609 4726 0
-7443 4437 2116 0
3620 5625 9043 0
-281 9386 -4743 0
-7795 4503 -1908 0
-4597 266 6849 0
225 3492 8602 0
-8922 -9407 2512 0
2550 1191 4097 0
1551 5689 -1339 0
7951 2061 9801 0
164 8814 -696 0
-5573 8317 816 0
5233 276 -6731 0
3842 265 8796 0
5369 -5194 -1546 0
-2656 9745 -6604 0
-8699 -5420 18 0
621 -1698 -6587 0
-3865 -6727 220 0
-4668 4459 -8019 0
5257 -3936 3455 0
9519 -6705 -6785 0
9868 7902 9831 0
-163 8691 2485 0
-3171 -4114 -8129 0
-4587 -8434 8369 0
-6374 -2075 -9913 0
992 -5318 9014 0
6409 -6778 -7289 0
-1678 2618 -2055 0
1031 -5854 7059 0
-9068 5137 2564 0
-268 8607 -8101 0
-8198 -7959 -7919 0
-29 -7346 -4852 0
-599 -4815 5431 0
6661 -3213 979 0
207 -4830 9477 0
-3069 -7891 722 0
1639 6539 -3746 0
-7156 -2782 -1283 0
-8017 -7158 -6172 0
-4444 8188 -4389 0
-7439 -2411 3621 0
7196 -1668 -9871 0
-7343 -8071 2370 0
-7773 -4502 -2048 0
-6375 -5326 -3047 0
-6736 2105 851 0
-8869 -8401 -4340 0
7924 -5062 -8888 0
-5352 -2845 -6189 0
4455 4395 1169 0
-7625 -7985 6940 0
1496 9360 6290 0
8787 -9337 8093 0
-2803 8844 -6062 0
-2426 7170 1297 0
-7334 -4267 2134 0
-9930 4532 6721 0
7265 1782 -2328 0
3509 6566 1588 0
-4765 6809 9780 0
-2415 3709 7825 0
-8357 -3943 -1651 0
8992 -7339 2310 0
-9929 4772 -319 0
-6783 2483 -3811 0
-210 -9643 -222 0
-2262 -8657 4602 0
-5761 3664 3900 0
-6492 6737 -8602 0
-9754 -8504 2466 0
-5264 -4995 8156 0
9041 8611 3073 0
6683 1248 9550 0
-8286 9346 4889 0
-7643 -8089 -1015 0
-1486 -9298 -7432 0
-6784 8079 -8689 0
1741 -1785 5011 0
9096 -1020 9689 0
4436 1617 8 0
-2998 -9089 -1651 0
9832 -8876 1034 0
6726 -1939 522 0
5940 4418 1219 0
-755 4439 6936 0
-7294 -5772 6612 0
1668 -189 -8072 0
7990 -5695 5947 0
-8662 -2220 7207 0
-9401 -5673 9894 0
-5234 7041 7857 0
-4589 -2583 6315 0
-5645 4224 -333 0
-5755 3730 -1037 0
284 -4933 -1436 0
-8983 -2911 -6816 0
-4944 -4595 -451 0
-2785 9899 -9768 0
3074 -8952 -4088 0
-848 -1006 -388 0
3374 -7808 8142 0
-5306 -6691 -1483 0
-4861 -3701 -2957 0
97 -7028 -1596 0
9100 177 -7560 0
4516 -4087 -4218 0
5096 -2581 6453 0
7381 7667 410 0
9251 4191 -6178 0
-8222 -4011 7900 0
-3796 -650 5871 0
-1817 6459 43 0
8047 -8288 3090 0
3819 5285 -6265 0
3897 -1389 -2018 0
889 -7918 -3930 0
5055 -1289 1701 0
-3248 -4219 -4649 0
4463 -7422 -1453 0
-7781 9361 -279 0
-209 -4548 -1661 0
-3729 -6492 9832 0
-1987 -1627 -8831 0
4649 -7641 -9236 0
6926 8839 4068 0
4251 -7647 -8373 0
5606 7998 -9637 0
-8257 -9023 4408 0
4374 -5003 9553 0
-3908 5619 6945 0
7508 -7199 -1903 0
8755 -4086 -6563 0
5737 -7121 5857 0
-9524 410 -668 0
-3423 9685 6692 0
-6515 2929 -7371 0
6300 7121 -6890 0
-5119 -2186 8600 0
-9047 -812 797 0
2462 -6657 -5500 0
2597 -4256 -3335 0
8979 -4538 -7502 0
-4660 -8167 -8460 0
-6666 7191 440 0
2109 2240 -3136 0
9281 -6949 6687 0
-7394 2902 8098 0
-3528 9811 5823 0
-7194 2795 7284 0
9778 -9179 -3082 0
-4519 -8548 677 0
1376 -5058 -8315 0
8732 955 5690 0
6647 -9310 -8819 0
-5789 3792 -7435 0
6943 -9123 2434 0
1619 -2417 -9150 0
4632 -7021 7588 0
-6029 -7566 7548 0
1940 3322 2075 0
-7136 -7596 6680 0
-9092 -4915 1966 0
9145 3948 902 0
4249 -9104 -9935 0
-3163 -2237 -6389 0
-2232 -2599 -7835 0
-3041 -8301 5890 0
-9951 -6465 441 0
-6982 4267 -3725 0
-5260 810 1043 0
5374 6999 7998 0
-8703 -1838 -596 0
-9241 -2619 -2164 0
8856 9189 -2984 0
-988 9320 -1435 0
5991 6861 7238 0
6226 -2710 463 0
4552 -8960 -2271 0
-5687 -4962 -7452 0
-3181 -7707 1396 0
-2964 -1729 -9835 0
9583 5552 -1983 0
-6246 6238 6805 0
1146 6282 9630 0
431 -2264 7062 0
-8542 -6984 1836 0
2634 4357 5370 0
-7388 -6946 6538 0
-1864 9766 -72 0
-2734 1059 -9268 0
8472 7518 -4983 0
1817 3203 1318 0
-2259 7396 521 0
-9636 2234 -8237 0
7428 -1038 -5059 0
-2547 -8898 6363 0
1303 2068 -9126 0
3993 7507 -5374 0
-6501 6970 6484 0
3871 6792 2367 0
5269 3815 4427 0
7426 -7475 554 0
6328 8018 -9186 0
8756 -2496 516 0
9142 -1693 7767 0
-2282 9598 6196 0
-1063 598 6167 0
5462 -725 3601 0
8445 1835 -1730 0
6947 -8819 4997 0
7860 6756 8700 0
1656 3492 9079 0
2586 4294 3277 0
-3358 7184 -2706 0
7632 6466 -7280 0
2587 8161 -9993 0
-6026 -3234 -5809 0
3702 4808 -5886 0
3289 -9270 -3993 0
4697 -2987 1243 0
-864 8281 3340 0
3764 -6803 -1888 0
5219 -3812 -3983 0
112 -9544 -1526 0
3379 -1192 6658 0
-946 -1559 6877 0
8011 -8025 -7443 0
9199 -1930 -9444 0
3853 -2713 4716 0
2018 2562 -3651 0
-6277 -5476 8049 0
-4245 5271 7 0
6163 4428 9229 0
2820 7613 -1272 0
2800 1412 -2790 0
-1653 -5548 8055 0
-1472 -7094 -607 0
6208 -813 -1557 0
3691 -2708 1965 0
7949 1577 1683 0
1877 329 -3641 0
1863 6055 3588 0
-1604 -2518 3370 0
-2172 3882 -3258 0
-1502 4393 7630 0
-472 1616 -5469 0
3351 6983 8098 0
-5823 1172 8386 0
-2450 -1562 -8452 0
571 7045 -5677 0
7763 4442 6685 0
-4658 6988 -7874 0
-6804 7168 -1234 0
-7895 -8398 7970 0
-6190 6781 5646 0
221 5406 3742 0
215 -2232 8658 0
1965 3919 2463 0
4450 -5798 2231 0
5827 -8576 8120 0
4826 7246 -4867 0
3605 -6229 -3911 0
-4205 -9050 29 0
-4629 -1855 -7003 0
9790 3030 -8924 0
352 -3903 -1204 0
-7671 -9535 -5762 0
-5759 6323 -4103 0
9277 -3991 -9202 0
-4818 -180 -3817 0
-6961 9385 -6653 0
6485 -6640 -9819 0
-2929 -5116 -6860 0
2315 1970 3360 0
7838 1030 1503 0
-4187 -2356 -7335 0
5447 -7023 -636 0
-8655 -4098 -60 0
-1262 -8960 8509 0
3904 -4096 3531 0
-8177 -500 -7353 0
-2299 9407 5871 0
-7258 9321 -7712 0
-1589 -3915 5929 0
2217 -488 6385 0
1403 7476 -5559 0
6040 -4246 8985 0
-6454 -9277 8113 0
-2185 -5477 5968 0
4240 -4039 1963 0
7446 1636 4994 0
629 1377 -3747 0
4606 -6521 2900 0
1923 -842 -8945 0
-7594 -7948 -7745 0
-1966 -8999 2841 0
9495 -957 -2891 0
-4697 5384 -9211 0
-2208 7250 7885 0
6156 -8451 1328 0
-9512 2415 -7013 0
7802 1483 6147 0
769 -4075 -4038 0
1014 7993 9067 0
6731 -3451 -1244 0
737 1657 -7338 0
8666 -3532 8153 0
-2980 -7458 2076 0
-6227 4782 8576 0
7130 198 7740 0
-8346 5097 9478 0
-1184 2160 4854 0
1335 -4027 -8179 0
681 -4729 -8041 0
-4876 1655 8579 0
9644 2637 4989 0
5246 -517 -7497 0
-9732 -4224 8754 0
2656 -752 -197 0
-3347 -7420 1245 0
-9904 7707 -8694 0
-8919 -1383 8490 0
-7286 -6474 9181 0
-5020 1460 6728 0
-4750 6810 5248 0
4314 8727 -9051 0
-3102 1560 7260 0
-1908 4540 8767 0
7267 -12 9700 0
-9740 -6462 1357 0
-2375 7826 -1856 0
-8975 -3108 -2706 0
-4539 5482 -3368 0
-671 -283 -8748 0
6431 6607 -6483 0
915 8492 -4632 0
-5868 4265 3449 0
3270 2978 8955 0
-7586 7378 -9786 0
-6218 5037 -6712 0
-4155 8077 -6538 0
7843 3308 -750 0
2802 -5211 6503 0
-5883 9332 3364 0
-7637 3448 -2814 0
-2140 -2615 8715 0
9734 8792 3447 0
5559 5179 -4052 0
155 -1899 -7893 0
1382 6364 3667 0
25 9772 5477 0
2062 1066 -135 0
3907 -7923 -4467 0
-8226 5027 7198 0
-9004 -8930 4081 0
-2270 -8147 9206 0
-821 2483 4108 0
-2975 4068 -1680 0
2542 -5521 9945 0
8750 -5369 5192 0
749 6351 8395 0
1713 -7460 2479 0
7991 -6495 7791 0
-9345 -3972 -5440 0
-9276 6380 -4297 0
-7878 -9378 9738 0
-2941 -4889 -5089 0
-1148 -1414 -7040 0
2341 6214 8536 0
7905 -5750 5996 0
-6194 9688 -9588 0
4204 -7685 -5176 0
3158 7150 -7434 0
-9257 -4416 -7717 0
6389 2389 8188 0
5993 2072 -6678 0
4993 5772 -8850 0
-7258 7599 7206 0
-9738 8942 -8259 0
5272 2696 -1129 0
-3542 8506 -9615 0
6698 -2037 -2944 0
-7842 -6005 -4136 0
-824 7647 8497 0
1526 -8966 -2300 0
-9375 -7457 107 0
-8465 7284 6598 0
-9681 1570 -3602 0
-3211 8498 -1158 0
6551 -6112 -824 0
7277 3405 926 0
5816 -7799 -2171 0
9161 -5744 -2665 0
-6162 -5513 -6898 0
3784 441 -9629 0
508 861 -7226 0
3936 6112 -7430 0
1790 330 -5037 0
-3923 -5973 8167 0
-2960 -960 9121 0
-3777 1276 -5432 0
-65 7856 7460 0
-6672 -2059 3747 0
1808 6511 -5937 0
3418 9229 1204 0
-9718 6464 960 0
9834 8457 6766 0
-6294 -5237 -7420 0
3289 -6833 -3119 0
-4531 -9348 -1836 0
5493 6994 8077 0
-2576 -2957 -6861 0
-3240 -224 1470 0
-6273 6070 8197 0
3678 -4976 466 0
-2054 7501 2474 0
-7787 7977 2291 0
4053 8681 4879 0
-2806 -6137 5082 0
-1889 3575 -9826 0
-9069 -2078 2799 0
-7626 7671 4124 0
6396 -2350 -1848 0
-1954 -6658 -1690 0
3067 -1330 -6364 0
252 -3126 -5236 0
-4881 -3989 6471 0
-5237 5727 -3746 0
3964 5786 -3835 0
-4668 -7637 9397 0
-5586 -9735 4314 0
69 2857 -716 0
6327 7812 556 0
9643 1489 -1745 0
8152 -8427 -7997 0
-3325 -4640 3907 0
-4470 5169 1445 0
5752 -8114 4995 0
-4086 -8608 -9836 0
-9418 -7196 6209 0
-5306 -9322 -1424 0
-5731 1080 9171 0
1310 56 8335 0
8985 3721 -9150 0
1561 794 -2877 0
224 -3471 3112 0
2763 6867 9623 0
-2584 -4742 8561 0
-9283 -3983 9091 0
-732 8542 6303 0
-9908 -8560 3583 0
-7386 -8176 -311 0
-9235 3045 1047 0
-3258 8986 6910 0
-6712 887 503 0
7283 -9890 1625 0
6076 4709 4605 0
3420 2376 7663 0
5206 7886 5386 0
-8129 193 3846 0
958 -7084 -7261 0
4992 -2083 -9445 0
9342 -3391 6024 0
3419 -2581 467 0
-3001 7852 -1267 0
616 -7522 -8727 0
169 6743 7198 0
-1573 -5401 -1199 0
3408 -603 2925 0
2796 6518 -5321 0
-7985 6890 2984 0
-9590 5053 -9653 0
-3569 -4739 -6759 0
-5340 -3261 -1544 0
5391 4136 -1474 0
3116 -5696 4294 0
2248 5367 9486 0
-5151 -3193 2204 0
-3805 -9267 -7341 0
1233 -2061 3557 0
-2661 -4065 -4293 0
-9923 4203 7427 0
-5173 -3042 7757 0
8360 865 -7301 0
2493 -6018 6120 0
-5283 3413 9740 0
-358 -2456 2257 0
-3261 -333 499 0
-2090 5785 5462 0
5485 1940 -4696 0
726 -143 3750 0
2050 -4823 7818 0
2713 -4774 8902 0
-8355 8564 -9712 0
2997 979 2820 0
-4601 4732 3312 0
5752 6469 -9596 0
-9070 -8692 8351 0
-2732 -600 9194 0
6899 -8858 6659 0
1330 9212 -2175 0
-6763 -284 -5255 0
-7854 2710 -9964 0
702 -5675 1762 0
-3124 -2139 -5683 0
-135 -8549 -2340 0
-2820 -3586 1977 0
-4357 -9254 -2822 0
9044 -5993 -9724 0
-6677 9214 -8632 0
-2458 -3445 -3819 0
-7030 34 6889 0
4015 -1008 -4685 0
-243 6703 -9331 0
6764 -6372 -4932 0
-2764 -4213 -3410 0
-5254 -3642 9681 0
-7605 -2730 -8592 0
-2974 865 -3178 0
2632 9486 -170 0
-3180 -5782 -8193 0
1589 3617 -3547 0
-3143 8665 2261 0
-1281 -6819 2965 0
1277 9548 8951 0
-2881 -2840 -8593 0
7753 3248 -2885 0
-5142 -5120 -6311 0
7402 1975 -6316 0
-4685 -2526 -3909 0
-7904 -2710 -3174 0
-6340 7719 9314 0
-1031 -1796 -5187 0
9 5410 -7923 0
2285 -2266 -4059 0
-1313 6817 -9517 0
9273 -1348 6386 0
8604 8625 9883 0
1887 -4380 -8220 0
7673 1336 8688 0
9043 -7617 1254 0
2367 5646 4190 0
9615 2794 -5180 0
-4721 4954 3132 0
-3875 -5915 -472 0
-165 -3514 -7749 0
-2699 19 6909 0
-1460 8334 3012 0
7356 346 -362 0
-171 -5226 4572 0
-8882 1597 9219 0
6850 -1517 5538 0
-2530 3248 3639 0
759 -3194 -5338 0
1548 6539 -7340 0
6785 -1859 4378 0
7993 2010 5148 0
-8808 6428 1036 0
-8590 7020 1238 0
-8165 -935 -7022 0
-9386 -463 -2468 0
-4226 -6495 -9557 0
7724 966 4812 0
5924 -7978 -3088 0
-9291 5195 8817 0
-6545 -2007 -7514 0
-5169 -5959 2621 0
4993 1644 -3614 0
-3392 5667 -5896 0
-2465 2991 5402 0
214 334 -9837 0
-4722 -5475 1921 0
-1480 8190 -209 0
9607 -8184 9215 0
5884 -6385 -3471 0
4857 -2733 -9098 0
1236 -22 -7669 0
-131 -6892 -562 0
-5402 1487 2318 0
-9120 3148 -481 0
3429 -62 -4494 0
-3018 -8862 4358 0
4928 546 9439 0
-2723 -3850 1084 0
-7980 4151 5634 0
3886 8668 -5391 0
-6365 914 -2446 0
-5740 -3534 3792 0
-1520 -9560 3982 0
1083 -9980 7502 0
4291 -7005 1516 0
1619 -6824 -4814 0
-9859 9418 -1933 0
1779 -4248 -3242 0
5001 -684 -7464 0
9681 7541 -1907 0
6119 -6950 -4051 0
8963 200 1872 0
-5373 7269 8691 0
2307 8068 7690 0
642 9403 -7780 0
6379 1979 -6912 0
-6981 -2366 -5743 0
6605 -4878 -5385 0
7826 -7460 -573 0
-3592 -5291 7965 0
-7957 7268 -4560 0
5857 -1884 9586 0
-3465 -9329 6376 0
6958 4358 -8006 0
2561 3215 684 0
-865 5939 8432 0
9043 -8357 466 0
3399 -6619 6386 0
-7386 -398 5410 0
6398 9541 -5066 0
7016 -9878 1210 0
4772 -5637 6127 0
2250 -3048 -6928 0
6086 3544 5519 0
-3849 -6376 -442 0
5197 -3521 -7457 0
-7467 2816 8149 0
8893 171 -7785 0
664 -4604 4377 0
2004 3737 8620 0
-5362 6432 -7725 0
7445 5504 -7033 0
6125 5245 -743 0
1141 -1917 6176 0
7292 1050 -417 0
-3993 -6230 -1611 0
6430 -4242 4284 0
6044 -5763 3871 0
1747 -3494 8440 0
2417 7214 -202 0
-3745 8945 4126 0
-4034 1767 -7098 0
3287 -8416 5248 0
-5788 -8946 349 0
1886 -4687 -9243 0
7750 -5241 7680 0
-495 -3620 -8218 0
-9361 4530 -6736 0
-4103 -6601 3009 0
3163 -4190 -7212 0
-3743 -7877 -3909 0
-5729 491 -4648 0
-23 9805 4058 0
-6193 6109 6963 0
-5933 -1953 -1962 0
9097 -1963 -3950 0
-3981 1717 -6641 0
-4291 9322 8640 0
6839 5520 5173 0
2346 -2056 -1104 0
2163 2461 -8707 0
6741 -2184 -3354 0
3389 3741 3627 0
-4011 5786 -4985 0
-8637 -4846 8044 0
-685 -1954 3505 0
-5482 -9461 7484 0
3848 974 -6120 0
-8913 -2964 -165 0
3616 4470 -6287 0
-3544 134 6371 0
-9122 710 166 0
8484 6565 7105 0
7497 7931 -8056 0
3648 -5893 -6987 0
7466 -1092 8433 0
-1017 2909 4924 0
-4803 3627 6971 0
5102 4486 -8819 0
3694 -5916 6259 0
8243 7857 -8711 0
2033 4741 -6136 0
-2499 -5337 -2567 0
553 -4546 9591 0
7696 -1598 6170 0
6678 -7201 -749 0
-6254 2081 -6269 0
-7493 3227 4384 0
-2324 -3257 -7497 0
7331 -8868 8437 0
1223 2886 -1452 0
7763 -4830 -9286 0
-6223 692 -1441 0
245 -4402 3885 0
-1184 4254 -7791 0
-7592 9648 -6280 0
-1469 -2144 -1481 0
1105 -6093 -7556 0
1854 -4163 -5317 0
-1135 -3016 -5058 0
4450 9595 1932 0
-8561 -952 -4388 0
9986 5574 8318 0
-6236 -928 -132 0
-3381 -4410 -1659 0
7139 5151 -2239 0
-2842 8177 9906 0
-3627 -690 -4172 0
-8274 8553 -2923 0
-5759 3755 4736 0
-9594 -2306 -9239 0
6431 -2468 5443 0
9815 -4656 1749 0
-6654 -1996 3519 0
-1572 9363 5240 0
8128 -2038 -1927 0
-9318 -9332 -73 0
7276 2364 4435 0
138 3713 -391 0
5421 2847 -2751 0
-4310 3783 209 0
9240 6017 4147 0
5596 -9198 -5337 0
-1455 3206 4993 0
-175 -7478 2153 0
-4139 -8463 7058 0
-5264 -2542 -5678 0
4274 -4788 1917 0
2039 2258 5170 0
-8403 8038 9281 0
4959 9252 -7731 0
3222 -3987 -2410 0
8360 -5966 3547 0
-2123 -8447 1663 0
7121 2976 -9321 0
-6144 785 -2145 0
2752 -2183 6282 0
-1923 832 -8210 0
4154 757 3246 0
2070 5016 -7537 0
3360 -3791 -6475 0
8290 4912 5482 0
-2722 3781 -4907 0
-6429 4550 9319 0
2685 6515 5530 0
-1922 9269 274 0
-4722 5363 -2901 0
623 5267 -1270 0
-7462 8473 -5047 0
2348 8867 -3237 0
4001 8711 1761 0
5961 -3619 9978 0
-7488 8318 5980 0
-57 -9808 7116 0
3586 3735 7429 0
8452 5400 -2805 0
8605 -1210 -9439 0
-384 -8387 3327 0
1250 9742 -110 0
-4164 6403 2472 0
-6818 3136 7117 0
-263 -8179 -5066 0
196 -2410 -9925 0
-7365 -5759 -1075 0
7918 -7822 -3752 0
3991 8681 -929 0
-9458 -224 9174 0
2741 -9776 -7265 0
2096 -1045 -8358 0
9530 3927 1992 0
176 969 2921 0
8770 -7082 143 0
-6244 -9921 5366 0
4779 -9269 2901 0
6100 4283 -8916 0
-1753 4568 2519 0
7900 -7430 -9462 0
1747 -5859 3140 0
4485 -8658 -290 0
-251 -5532 9824 0
-1767 -7005 -8258 0
8804 2040 4048 0
-7070 -6048 -1854 0
-5425 5247 2379 0
1177 6239 -7316 0
8372 5625 3930 0
-3670 3953 1375 0
8385 224 -4253 0
-7156 -6924 -153 0
6711 7094 4638 0
7375 9851 2899 0
4843 9075 -593 0
-1458 -4549 6450 0
6001 -5500 -8494 0
9646 2630 1994 0
-5650 1330 -4980 0
-6134 -8762 8173 0
-684 -2363 8386 0
-4112 2445 963 0
9435 284 -417 0
2740 2968 9177 0
5413 -9526 9163 0
-6509 -6050 -329 0
8583 -6196 1513 0
2007 2794 1277 0
-6032 6009 2011 0
-393 7855 -9769 0
8915 57 -8537 0
2262 -1449 -1410 0
5569 -5021 -9660 0
3095 5071 -2661 0
-8538 -72 -7904 0
-446 -312 8443 0
2422 6063 -4184 0
377 -9672 -2396 0
-9132 4335 -9274 0
6587 -9097 689 0
-3896 -8805 1718 0
-8414 778 2154 0
3012 -8777 -130 0
1599 9444 523 0
-8100 -5436 1025 0
4831 -6342 -5744 0
4761 -9399 4062 0
6029 -1684 -7155 0
9681 -6204 3727 0
5170 -9584 7596 0
7805 3491 2367 0
-6902 9625 -6317 0
874 9042 -7578 0
9670 -2570 9196 0
-7279 -9708 -2632 0
-6702 9500 4715 0
9558 -1165 417 0
76 4280 -7110 0
1769 -3657 8870 0
8829 -1413 -5609 0
4500 -8046 2816 0
4342 3538 1101 0
8198 1573 -6393 0
2394 1243 -7240 0
-6730 6878 -5628 0
-7333 -6318 8737 0
5231 -8198 3323 0
2891 9463 -4433 0
1895 9362 -8689 0
1155 -4353 8183 0
-4482 -7987 -5261 0
-5119 2624 -4283 0
-4719 7934 2459 0
7497 -2950 -4219 0
-8277 4975 -8913 0
6712 -2485 -5728 0
3936 -86 -8788 0
4443 1466 -6032 0
6935 -8431 -2010 0
-3186 -6541 -9330 0
1233 -9204 -6334 0
-7222 760 -9781 0
-3204 -3467 -7410 0
2859 -353 5886 0
671 -5155 -8898 0
-6615 -4878 -4479 0
5199 1064 -9278 0
4672 -2664 -7256 0
-1060 -9476 -9673 0
-2668 -9052 -6158 0
-804 5536 -2417 0
-5639 -8661 -6073 0
-9679 2672 7871 0
-4614 6036 -710 0
7402 -7987 9810 0
-4880 2753 364 0
8910 -2719 8348 0
-8226 3083 -9806 0
-3045 9932 9586 0
5280 2340 3254 0
1170 2852 9540 0
-3265 7184 -526 0
5950 8032 5719 0
7582 9744 4683 0
-3525 -1691 5169 0
-6695 918 -3805 0
3857 -5809 -7232 0
-814 -7757 282 0
-2344 -7045 -6876 0
-1947 -8236 9728 0
6870 -2963 -5982 0
2540 6778 3668 0
-8029 -9538 7001 0
9562 6554 -3840 0
-9 5550 -6187 0
-3654 3180 4306 0
-3686 -9352 -562 0
4343 -7018 9252 0
-3421 -9753 -1806 0
-5073 1168 2886 0
-1114 1993 1163 0
8607 -7892 -1809 0
3194 6800 8824 0
-5827 -8253 -2814 0
-2025 9712 2722 0
7028 6391 1111 0
2 -1291 -1385 0
3277 2818 2619 0
-1746 1238 -7649 0
-9850 -8768 1357 0
-8024 -2922 -5130 0
5425 -8933 6265 0
1775 2485 3174 0
9410 6033 -5658 0
-7472 617 -230 0
2631 1721 1867 0
-893 5959 4075 0
5925 -1674 128 0
-5954 -5603 -4203 0
-3882 -1070 6016 0
-6841 -1132 -8279 0
7094 -3925 6064 0
1856 -472 -6308 0
-9431 9071 -1200 0
5233 5808 -6499 0
6826 8777 -9386 0
3490 1924 4739 0
7921 -1116 4602 0
4833 677 -938 0
9744 -9390 4902 0
-5550 2816 730 0
834 8854 -2010 0
-8068 4276 682 0
-7739 -6276 -2176 0
5988 2860 9650 0
8905 3747 2806 0
-8126 -774 7207 0
6254 8122 -4851 0
-2434 7438 -9968 0
3341 -4032 6246 0
8223 -8385 7040 0
8887 -2321 2746 0
-2888 -1500 6456 0
-1083 7627 6255 0
6370 -3730 -7970 0
7192 -3310 -6029 0
-1010 9376 9176 0
-3146 -2119 -8721 0
-5072 8326 5522 0
8203 6255 9628 0
-6274 6057 6563 0
7278 4827 8189 0
782 -7788 238 0
5289 1107 8783 0
-1396 -8565 319 0
2402 5307 2947 0
7764 7855 4135 0
-8671 6967 -9635 0
-8042 -2952 -1336 0
-1342 5535 229 0
-2086 -8974 8774 0
-3683 1528 -4451 0
-4152 -9799 -9278 0
7401 6704 6723 0
67 -5638 -7742 0
9386 8103 -1093 0
613 -2417 -4909 0
422 -6150 8676 0
-3857 2839 8241 0
-260 3340 4196 0
3166 -9518 7033 0
1951 222 -2686 0
-3651 4553 -8511 0
1669 632 -7597 0
-8310 -445 -1992 0
6148 7142 -8292 0
8003 -9067 1989 0
-8927 -8755 -7616 0
-3322 1283 -9372 0
2964 -6907 5542 0
1918 -4458 -9655 0
-6151 2177 7361 0
-5726 3661 -3359 0
-2072 -8664 7126 0
5935 9743 -8786 0
3941 575 6582 0
-971 -422 -4640 0
3468 8561 9425 0
-3683 1931 1186 0
-1116 -123 6704 0
888 7942 -4005 0
7094 -5685 5107 0
-7209 -7916 -4938 0
-9310 7568 -4212 0
9732 -5839 -5332 0
8367 -6424 935 0
2539 -724 328 0
-5286 -98 -6832 0
6129 8142 -9431 0
6985 6969 1933 0
5613 4911 -503 0
-2177 -6629 -7072 0
1691 -1861 165 0
-4865 170 -1123 0
-9471 629 -9379 0
-1633 -4794 9337 0
1200 2704 -8452 0
-5090 1923 -1595 0
-9650 5197 -5208 0
2428 -5897 -5343 0
-7218 -1694 -536 0
2206 -1415 9074 0
-722 673 -4352 0
-2181 -7295 -5406 0
4459 -7623 -7846 0
261 7546 3021 0
-9539 -979 5729 0
-1716 4716 8146 0
-1095 6903 9652 0
-5950 -8640 1764 0
-3529 -4774 -3098 0
1910 2838 -623 0
8848 -8823 652 0
-5233 3833 4019 0
-7178 -3434 -7585 0
6900 -1611 2971 0
-4307 2558 -4165 0
5101 9533 -7515 0
4676 -2665 9779 0
-3201 -5125 -6829 0
2016 4793 5854 0
-4340 -6703 -9004 0
-2620 -7427 -8141 0
-4414 -4130 723 0
7365 -49 734 0
-2415 -5070 4825 0
8488 -1020 3639 0
9926 7053 -7750 0
-5115 -6936 -3784 0
8167 5466 -3657 0
-5800 -2619 2595 0
5074 -7839 -27 0
-2916 -690 1664 0
8879 -1995 6382 0
-4015 8039 1435 0
668 -8508 4501 0
3852 -252 -3629 0
-7170 7114 -8153 0
-4715 -8544 5560 0
5040 -9524 -2213 0
9041 6702 -9241 0
-2244 4272 2168 0
1899 -1563 2294 0
9980 8997 9967 0
-4019 4765 -9603 0
3737 8996 -9125 0
8102 -6439 -9650 0
3488 -80 8466 0
695 7567 -8695 0
-6568 -8497 -8913 0
-3531 3597 685 0
-8653 -282 -9376 0
-6238 2323 705 0
8289 7096 -2952 0
-2992 6517 -389 0
7847 -9825 2614 0
6305 -6021 -9868 0
-5741 -8806 7438 0
367 -7728 -3111 0
9240 -4653 -5936 0
-9229 6744 7538 0
4683 465 1944 0
6038 -7289 7369 0
6711 4767 4638 0
-1041 -1617 5839 0
-500 5619 -742 0
9593 -3814 1605 0
9490 3915 -3765 0
-6688 3445 -7177 0
4003 -4660 -9948 0
8211 -4444 -9602 0
2836 -2906 -1771 0
-8819 -2747 -2134 0
205 8731 -5315 0
-4499 6896 3243 0
-3846 1770 -8317 0
-7324 -9998 -3523 0
-5541 9196 -279 0
-4206 6005 224 0
-6639 9666 -2691 0
5815 -7080 7683 0
2373 -4856 6587 0
8346 5068 -6497 0
6050 -8283 -2974 0
8756 8402 1476 0
8290 -8777 -9721 0
1671 -2949 -4566 0
7153 -505 6299 0
6786 -5531 -4372 0
-4537 -402 -1240 0
623 2619 -8574 0
-6433 4279 -9257 0
-7923 -4001 9301 0
-195 8100 -6903 0
-6097 4937 -5141 0
-7754 -3236 3866 0
2680 9321 -9922 0
4457 1754 -5690 0
1703 6095 964 0
-1163 -2224 4964 0
3871 -6736 -9635 0
-2564 4250 -8740 0
22 1122 -4628 0
-1720 -2411 4473 0
6209 -3102 7274 0
7742 2985 3947 0
9518 -50 -1031 0
-2941 6272 2089 0
-1191 -1273 6919 0
6427 5908 7466 0
-5637 8061 5823 0
1460 6702 -1832 0
-3132 -8354 -8214 0
6649 8145 -1081 0
2392 -8737 387 0
-7953 -7859 -7606 0
-6294 7689 -2576 0
8207 766 -6482 0
-8716 8645 4470 0
-1671 -4065 -5660 0
-4135 -2317 -7870 0
3492 630 -8804 0
-1542 1516 3418 0
-3320 9824 -5582 0
3879 -940 -8983 0
-8494 -5569 -9820 0
-2570 6836 1487 0
2549 5428 -3446 0
7014 -7991 -2852 0
8280 8974 4869 0
-2360 -5712 -6428 0
601 -147 -8925 0
8135 -9110 9700 0
-8637 -1015 -496 0
-9809 -6597 -9254 0
-4567 2170 9891 0
443 3788 -2920 0
-9129 -3295 -8795 0
-9440 -4506 -373 0
-3921 204 6006 0
-7553 3405 6717 0
-9585 -6787 -4965 0
5047 -3452 196 0
-3040 9502 -4003 0
-8698 4117 4262 0
-4928 1798 -8208 0
7808 -441 -6298 0
-8160 7804 -2799 0
-6833 -5788 -6811 0
-7605 -9093 3866 0
-3063 7371 -4118 0
5071 -493 8594 0
1109 1895 5903 0
-3266 2414 -237 0
8490 3231 8856 0
-5903 -3226 9109 0
4454 5816 9262 0
992 2809 5802 0
9576 4106 6534 0
-8883 -4350 -4130 0
-3656 5507 181 0
-9581 -1206 1328 0
-6948 -4502 3625 0
-1831 -2588 -7818 0
4766 -7657 -4307 0
4735 -809 477 0
-6163 -6809 5022 0
9625 444 -3695 0
3064 -3674 5598 0
-7996 -8188 9737 0
3613 9770 -9899 0
-6664 -3483 -873 0
-1037 -703 2515 0
-7326 -5502 1737 0
5113 2483 2925 0
3453 4800 -6254 0
7998 8454 6692 0
6140 7850 2369 0
-9103 1466 -4706 0
6782 8270 4529 0
-7554 2393 -9557 0
-9241 -3302 -2569 0
-2567 -35 -8696 0
9099 4365 6352 0
819 2846 -4021 0
-1377 5499 -6613 0
3819 1108 -9196 0
-971 8183 7700 0
-6902 4271 3654 0
-8575 9274 9778 0
7347 2676 -3758 0
-8560 -4682 -249 0
-9722 9357 4154 0
7376 6565 9177 0
-7306 6628 -6446 0
147 -1996 -3708 0
-9054 3583 2189 0
1421 6113 8005 0
-7811 9259 -7835 0
8606 -3193 -6 0
7223 3236 3790 0
2179 -290 -2454 0
-5636 5441 294 0
-9553 4005 974 0
8704 5792 6099 0
5736 6619 -1954 0
7532 -8477 -114 0
5612 3619 2809 0
-6271 -4174 -8709 0
-2960 -182 -784 0
-8335 2531 7804 0
-2563 370 -2923 0
7087 -397 -3696 0
3185 -6587 9288 0
5417 -2433 -59 0
-2857 -2336 -6909 0
1594 962 7063 0
-4638 7195 4950 0
3592 4059 -4122 0
-3272 84 -6952 0
-6354 -1470 -480 0
-5532 1509 6679 0
5586 -7648 -1426 0
-2420 6282 7419 0
8901 5917 -6149 0
-7322 -5494 -5309 0
1910 -1174 -3112 0
7518 -4801 -1530 0
2679 -8511 -1385 0
-4266 50 -6437 0
6671 -2719 -3077 0
9783 6415 -6995 0
-4375 -7751 9068 0
-3806 3052 6988 0
-5222 -4684 3581 0
5276 -7685 -9939 0
6554 -9382 -9535 0
-6870 9873 2201 0
-8664 3221 8115 0
5964 -5723 551 0
6039 -6980 9946 0
-3081 -6401 -2161 0
-7304 -796 -6601 0
-3915 7328 8291 0
-4985 8051 -5622 0
2995 -1124 6811 0
-4097 -2447 3964 0
-7158 9110 8249 0
-5198 -2930 -7173 0
-3771 3748 -7741 0
5080 -9768 -6637 0
-3850 -5449 -1103 0
6573 -4735 -8373 0
5573 6900 9282 0
3952 -6959 -1675 0
-5470 -9797 1044 0
2162 -7205 -3701 0
-8294 -1372 619 0
2289 -8658 1827 0
-3943 -184 5740 0
-2606 669 2363 0
-6047 -6000 9054 0
3923 -8733 -7485 0
-7841 -8988 -913 0
-43 -3697 -401 0
-3749 -8182 619 0
-7350 8965 -546 0
6964 7020 -9101 0
-2833 -4409 -5640 0
-1243 8080 -8082 0
6782 1008 -6396 0
-1390 2265 -4596 0
-4174 6735 -8138 0
-3179 9184 -7223 0
6833 -3159 455 0
-9527 -4460 -4281 0
7888 7026 -6406 0
-3738 4551 -276 0
8326 -8332 -5439 0
3861 -2895 5750 0
2753 -4292 -4620 0
1069 -4045 -6908 0
7963 1123 -9093 0
6504 -1063 -3757 0
4506 -4782 -6662 0
3037 -6669 -3672 0
2203 -9178 -8540 0
303 3359 4866 0
7237 9903 5490 0
2100 184 765 0
1035 3548 5420 0
-2324 -4779 1940 0
3991 4045 3158 0
-7485 1314 440 0
-5932 -5266 3867 0
-2465 4573 5598 0
7417 -2701 4473 0
-6114 -7948 -9785 0
4925 -8475 -4835 0
-2426 -8522 9255 0
2163 3010 -1801 0
7039 -8563 -177 0
-8092 2220 285 0
-3113 -6157 5007 0
-7177 -1394 8115 0
7532 -1238 -4825 0
144 3546 7183 0
5603 -3374 -2307 0
-5710 -153 1686 0
-1248 -6538 7436 0
7797 -7403 5433 0
-8911 -326 -8365 0
9656 -8817 -7065 0
2783 -3806 -6367 0
-3235 -5793 -939 0
8476 -101 -7212 0
9840 -4900 9034 0
-5576 -8910 -3223 0
7475 -5607 -6225 0
-9165 7584 66 0
-4153 4044 -3086 0
-4778 1026 -8234 0
9129 4932 9587 0
9054 -76 5884 0
-9030 9940 -4443 0
-7667 3825 7907 0
4735 5838 -4124 0
2956 4653 1348 0
3862 334 -8997 0
2684 1306 4365 0
-3512 5482 9724 0
-9189 -6654 -1940 0
553 634 -6783 0
6212 -6069 5546 0
-2145 -8542 -3540 0
8768 4666 3418 0
-5590 -2492 -5038 0
-5282 8055 -9087 0
-2063 -6974 1953 0
4513 955 -2777 0
4269 9469 4697 0
7117 2686 -2679 0
-5876 5627 -2799 0
5037 -1020 4848 0
8323 338 -9564 0
2814 -2330 7679 0
-6953 2015 -2043 0
-146 -5902 4794 0
1791 6879 -5043 0
-2380 -2174 3465 0
-448 -3789 5992 0
-7905 4188 9278 0
-8413 -6368 2344 0
5237 -2260 1523 0
-3589 -3484 2265 0
-7002 2566 -8267 0
-694 1031 9409 0
-7473 -1229 -9192 0
-101 4245 -5192 0
-540 -9913 1772 0
-7663 -2874 5660 0
-4281 9242 -2394 0
550 -2025 3230 0
-2278 -9487 1953 0
9708 6894 3771 0
4521 8337 6357 0
8871 7783 2035 0
-6211 7866 8821 0
-2118 1552 -2124 0
2372 3777 9397 0
5868 -1852 -5190 0
4522 -1045 1560 0
5414 -2873 2643 0
9808 2696 2386 0
-1011 -1843 7912 0
-8603 7876 2681 0
9227 -847 6681 0
-5064 4394 9802 0
-1347 -4520 -6538 0
-9733 -3179 6542 0
-7132 -3827 8932 0
-3079 5306 3419 0
6665 -7939 328 0
5494 -666 -2489 0
-6410 8860 318 0
879 4705 600 0
-9370 -3679 -813 0
-2848 6685 -5331 0
9528 825 8826 0
6309 -1142 -88 0
-415 -5568 9972 0
394 850 7414 0
7720 -639 -6991 0
-4463 -6235 -3193 0
-3235 -7430 4615 0
-215 9484 -4002 0
4834 -4096 5294 0
9102 2218 -9236 0
7020 -1283 139 0
-3301 -2591 224 0
-2448 1768 5920 0
6744 4556 -9475 0
-71 -6274 8253 0
7956 -5068 2662 0
5181 7074 -9054 0
8229 -384 9247 0
7146 1860 4659 0
6330 121 -8713 0
-1548 -6654 -7718 0
-6473 8163 4912 0
-4800 -8437 6143 0
-4152 -9405 -750 0
2142 530 1842 0
-4352 -5907 4836 0
-433 -3496 -2287 0
6508 -3252 -5378 0
-4960 9458 -7625 0
-3254 282 8117 0
6134 7867 3138 0
2871 -9734 5367 0
-698 233 -920 0
3655 -3316 -4264 0
90 4604 6013 0
3344 -6875 5134 0
694 9468 -6985 0
-5202 -148 -5922 0
6394 1512 1480 0
4023 -7401 9122 0
7365 -5730 7831 0
157 9440 3483 0
-870 7382 2889 0
-7948 9122 -3 0
5568 -4061 -2991 0
-499 5952 -7184 0
-6030 5409 -3327 0
-8254 425 6688 0
-2146 -669 5000 0
-1284 -9400 -8006 0
9813 7453 -3061 0
4673 3883 5159 0
1234 -9685 -7976 0
-283 7928 3474 0
8070 5812 -631 0
-9218 -7075 3159 0
-1018 -4590 -9776 0
2456 -6058 3242 0
-3752 1591 6963 0
-8479 5846 975 0
1106 8955 1839 0
-3485 -7906 -9794 0
-1994 -7125 -3065 0
-7697 -5940 -5891 0
-4459 5312 4004 0
2949 -3839 8857 0
9882 -7001 -3169 0
4323 5771 -4098 0
-5417 -1201 6348 0
6978 -1030 2927 0
1972 -8105 -1425 0
-7441 3615 -8897 0
2615 -6203 -3856 0
589 -8944 5413 0
9611 -975 4517 0
1436 7619 -4727 0
-7359 1558 -3348 0
-4764 -2846 -7729 0
-2054 105 -1103 0
9494 4688 8413 0
-6704 -7320 -5824 0
-2714 -5504 3859 0
5812 -1936 3259 0
4294 7535 8118 0
982 2824 -7119 0
986 -8993 3339 0
9188 -2083 1075 0
5682 -5429 2041 0
-8448 -3588 -2800 0
3184 -4554 -728 0
-5467 9794 219 0
-1429 7075 -562 0
-2865 4779 -5301 0
-7947 8997 7165 0
-266 -6590 -3410 0
9529 9907 -1964 0
-7565 4799 7706 0
7359 -6806 3932 0
-9180 -145 4256 0
-3960 -8760 8502 0
-3268 -7730 9220 0
-8987 5494 -5992 0
972 8462 -4665 0
-3352 5643 -4367 0
-1966 6700 -9619 0
6739 8603 4057 0
7136 8187 -4348 0
-9369 -5550 -8041 0
51 7646 6395 0
-8479 3936 -2781 0
3454 -1191 349 0
-3323 -9013 5399 0
-8449 -9213 -5233 0
-5155 5111 4949 0
9862 -161 -321 0
5562 -8531 -122 0
-4079 -7808 -8000 0
-1361 -3631 4232 0
-4616 -2701 -167 0
-1860 1763 -2076 0
-5996 -4419 8532 0
-5496 -8625 -4936 0
-3555 -4463 3112 0
-5019 3260 3403 0
6968 -7265 -7353 0
2332 7854 -1676 0
5730 -9224 -6229 0
-3216 651 8153 0
-8147 4724 -2737 0
3002 9172 -6745 0
8481 9365 -506 0
-7754 4339 2497 0
-2941 4806 5004 0
-8226 -8219 -5708 0
-9039 -7395 -7117 0
-7804 8269 -4654 0
-5248 -3289 3248 0
6670 -8753 -8970 0
9477 -431 857 0
6702 9986 -5165 0
-916 -9672 -732 0
2701 3880 -3294 0
-1572 -3640 3652 0
1316 9038 5468 0
-2754 -5068 -6684 0
4545 8271 9915 0
3004 -6960 -1663 0
4609 9811 -5699 0
-6803 -1136 -2587 0
351 -64 -2927 0
-3917 8178 -9990 0
7583 933 -144 0
1397 -302 4950 0
6102 -9364 5178 0
-7387 8365 8689 0
-2574 3518 7713 0
-2182 -2464 -953 0
4086 5187 -7754 0
4948 -3375 -8317 0
8956 -983 -9656 0
-823 -5528 1381 0
-7052 -7949 8952 0
-6997 9053 1342 0
-1592 3658 4240 0
5467 -7708 8974 0
-8716 7799 8665 0
-8312 3029 1944 0
-8960 -8360 -8717 0
5958 -62 1855 0
2122 -7658 -9496 0
5257 3607 -1605 0
5575 -9263 9786 0
4989 9822 -2250 0
-6109 -9123 2192 0
-4606 4175 -4903 0
-3825 2577 -2899 0
-2004 3337 1567 0
-7929 -5114 2997 0
3387 -1491 7007 0
-7742 376 -4427 0
906 -9654 -5443 0
-1093 7688 3842 0
997 -2698 4284 0
-3186 -4282 -2819 0
4657 -6938 -1512 0
-5556 -6825 3273 0
-1659 -9480 5676 0
-8982 4163 -6110 0
-8698 7035 5547 0
-555 -1436 7092 0
-2846 -1782 9641 0
-9813 8791 7038 0
-4893 -4617 5431 0
-2121 1503 928 0
8580 8704 4743 0
-4935 -976 -6036 0
2030 5724 6633 0
-1005 -1805 -393 0
-2771 4410 -4359 0
4593 7195 7108 0
4427 3897 8077 0
-6234 -7966 9633 0
5451 -4550 173 0
-9238 3647 -78 0
-5762 3042 4481 0
-7250 8996 -5500 0
-7513 2479 4391 0
4769 3828 2485 0
-1396 -3849 8734 0
2564 -2461 2839 0
2223 6246 9949 0
-6825 1078 -4028 0
2104 -51 -278 0
-2573 2956 6344 0
1546 9120 -1337 0
4835 -2529 -939 0
-3821 4748 -2549 0
335 -6667 3314 0
5303 -8297 -8255 0
-2054 5848 2140 0
-1496 52 5921 0
-8537 4813 4042 0
-2402 -6396 -6599 0
3424 925 4743 0
-9343 -4823 8414 0
4706 8682 -3456 0
2436 -5773 7451 0
4285 2912 1192 0
6698 2650 -3322 0
6963 2566 8657 0
5057 1541 -4621 0
-7557 6165 4436 0
-6009 -1418 1163 0
1106 -1639 9766 0
4311 -7392 7467 0
-7253 8794 -6003 0
4812 4299 -3692 0
-8215 2519 9059 0
6355 -996 1143 0
4760 -5814 -5424 0
-8815 6474 -6303 0
626 -9352 -4740 0
8341 -4261 -670 0
173 -3180 -2269 0
-9618 -9954 -3035 0
-6895 1396 -6336 0
9945 8005 9712 0
-7704 -2846 6965 0
-27 -4279 5338 0
8074 -4935 -6977 0
4943 654 6029 0
6419 -1867 3704 0
1271 -1192 3129 0
-4331 -6717 1799 0
7564 -2154 -6613 0
2936 8636 -6622 0
692 8513 3237 0
-2376 2011 -9669 0
8964 -4369 2575 0
-3847 8658 4903 0
-2534 6132 -7718 0
2005 6488 3358 0
206 7031 4246 0
3704 -3852 5532 0
9084 -1452 -6528 0
-8342 -2601 6928 0
-6653 -4153 5346 0
3617 -4283 1500 0
8121 3724 -602 0
145 -1434 5485 0
-769 6824 530 0
7148 4630 2401 0
1438 8652 -2807 0
-8073 -4858 8563 0
6517 5023 4307 0
-4242 3237 3761 0
3857 5353 -4311 0
-938 7166 2390 0
-6136 9678 8317 0
-5537 5727 4341 0
4172 1314 -7840 0
-3760 -2831 -8600 0
-1915 2129 -1558 0
6194 5327 963 0
-7787 -6001 2700 0
1188 8773 8674 0
9408 -9927 -8458 0
1511 -5799 -4965 0
-7900 -2928 -6701 0
2541 9098 -4750 0
-2324 -2814 8010 0
-91 -3332 8020 0
6179 -4262 -2332 0
2084 2325 -7245 0
4635 1022 6329 0
7383 2413 -3004 0
7879 6595 7430 0
-9467 -5616 203 0
-2659 -1661 3882 0
8753 -2447 3124 0
7358 -2880 6077 0
-5260 -5478 533 0
-2619 9455 -6786 0
8562 -690 -428 0
-8396 -6266 7693 0
2875 -9040 -3257 0
-631 7388 9958 0
258 1125 1535 0
-752 -6539 -7838 0
4985 -8022 5991 0
-9905 -1046 -7049 0
-2735 -5744 7114 0
-5339 8491 -8888 0
7788 6551 8272 0
-9811 5244 3872 0
-2483 -5419 4948 0
-1580 3628 5278 0
488 -3803 -8982 0
6126 -7922 -4345 0
1426 -4877 7397 0
-9152 -1730 -8948 0
1598 -7503 3174 0
6636 7892 7895 0
-2437 -6822 5 0
-623 9036 -4676 0
9891 -889 363 0
-4438 4103 -166 0
-8152 1558 -4146 0
1843 -3362 -5636 0
2370 -1367 8423 0
6999 -7598 2100 0
-1734 -922 -8187 0
-9921 5275 -7856 0
-7670 6630 6844 0
5043 4782 974 0
1574 -9208 -1283 0
2279 -9883 7154 0
2001 -4755 -5687 0
-1803 -2898 -9613 0
8637 5099 -9088 0
5968 -2333 9107 0
9640 -8972 -5921 0
460 -9231 4097 0
3042 2146 1930 0
-4351 4499 2890 0
5034 7196 3764 0
-832 1719 8087 0
5873 6102 -7873 0
6660 733 -7662 0
979 -3414 5157 0
-9393 769 -868 0
7468 -9885 -2334 0
8232 9777 1187 0
-2289 -991 -8116 0
9314 -3579 1051 0
4911 -1200 -2655 0
4637 379 -8938 0
6634 -6852 6181 0
4522 -9550 4877 0
-2779 -6544 -3406 0
-7920 4240 -8038 0
8268 6067 -8413 0
6539 9525 445 0
5109 -6351 6948 0
5386 -9073 6895 0
-8775 6617 -8965 0
8489 -1262 -1461 0
-1212 -5669 7810 0
-6661 -1451 -4262 0
-8500 -9654 -1585 0
-9686 1716 -9462 0
2924 1029 -2548 0
5797 -454 9890 0
-8890 -6532 -9380 0
4145 -3675 8490 0
6836 -8638 -5099 0
9188 5056 4396 0
7203 5615 -506 0
-2529 7633 -9570 0
5871 -7424 -858 0
-8810 9877 -9541 0
-7835 3586 3699 0
198 -5719 -9050 0
8460 -1837 8890 0
-1053 -9365 -3476 0
2016 -9699 -6695 0
-717 621 -3589 0
-7779 -5581 -4822 0
-57 3714 9879 0
-2964 -7719 -363 0
-7710 670 8061 0
6456 -235 -4414 0
-6333 8323 -4608 0
-7331 1560 -8504 0
-1248 8432 -5920 0
6457 -8691 4538 0
8255 3439 2048 0
-7443 2001 8585 0
-1974 -9830 -6817 0
2798 8786 2317 0
-8954 4539 2675 0
9549 2960 -5447 0
6530 -4461 -3494 0
-2806 -2104 -845 0
-519 2749 -3169 0
-4209 8857 -8967 0
-9631 775 -5851 0
6635 2708 -6632 0
8226 1456 -6971 0
-8286 3584 3215 0
-2200 -7922 2275 0
-8040 -1725 -1510 0
-5818 5021 -2099 0
3587 4133 -5772 0
2216 7021 -4133 0
-4183 2310 -7668 0
9312 -7010 9660 0
-9230 -8362 2106 0
-9681 9362 -8686 0
-8072 -66 -960 0
5085 -8035 -2711 0
8091 -6740 -8382 0
6755 -5036 -7466 0
-8555 3593 2163 0
7131 -6198 1208 0
-92 -7592 -6758 0
-6756 -6212 9394 0
-5931 -2027 -2145 0
1336 3116 -3401 0
-8735 -1858 -6362 0
6726 3609 9897 0
3106 -1577 -1234 0
288 -6398 -3542 0
-5932 -4487 -6960 0
-825 -8525 -7472 0
-118 4398 4728 0
4956 -4338 6361 0
1025 -4128 5708 0
2231 9894 4503 0
4698 7527 4579 0
322 9064 -243 0
286 4161 768 0
3497 9567 -5640 0
5418 -6745 -6435 0
-6579 -4396 -6517 0
3648 3323 -8469 0
-6985 7971 1855 0
-7402 -6783 4373 0
-187 1956 8045 0
-8858 4595 -8739 0
-6941 4097 -7045 0
8672 9310 -5081 0
189 -7772 -9517 0
6764 -745 3290 0
4292 -4422 3548 0
-5760 -9577 444 0
-9790 -1558 -2524 0
275 9499 4095 0
4211 7312 1117 0
2084 2064 -9582 0
-1270 2180 6275 0
9 6720 5348 0
-142 -7736 159 0
-3176 6779 4231 0
8300 691 5814 0
2149 3197 1161 0
9810 -8496 -4693 0
-9569 7959 878 0
-5482 -7994 -5533 0
-6855 6171 -8134 0
2810 9161 -3417 0
1298 -2549 -7586 0
-568 3074 -3410 0
2435 -8012 6800 0
1901 -9602 6452 0
9481 -7633 -6761 0
7300 -4404 7457 0
2928 -4068 -2656 0
5926 -8123 -3261 0
4174 6949 77 0
7830 1482 4718 0
-4347 -4696 4824 0
-602 -2567 9005 0
-4023 -7207 6592 0
-8815 -1065 3417 0
4532 9934 -151 0
-3549 -5235 8021 0
-1690 3302 -718 0
8550 -8894 -6762 0
7241 4230 -8089 0
-3750 1271 4221 0
10 -8068 4631 0
-7463 7956 6630 0
2425 -6535 3427 0
6771 -2303 -4347 0
4184 -7462 -6640 0
602 6532 -9169 0
-8928 -4699 -541 0
-9863 -713 8022 0
-2676 5528 -2047 0
5619 -8876 5755 0
3141 4634 7488 0
1848 8365 7894 0
497 804 -1267 0
7011 5338 6521 0
-4696 -9659 -4454 0
-7276 -4938 -3197 0
9790 -6722 2106 0
-3977 9168 8458 0
4893 6347 -7919 0
4530 -7858 -8709 0
153 9021 7024 0
-7727 8384 4252 0
745 -6921 -1357 0
-2399 -386 -3898 0
5783 4147 -2601 0
1889 9240 -4522 0
7430 2538 -1416 0
7385 -8701 -2370 0
7373 -9711 8691 0
-9531 2758 -320 0
-7020 -291 9274 0
9973 2830 -1377 0
-3657 362 7806 0
-4591 -4993 9376 0
-6962 2673 -5344 0
-4961 -1842 4128 0
-2851 4339 -4920 0
1640 -4013 905 0
-5517 2988 8372 0
4446 3523 -9305 0
6497 -5387 6472 0
-7862 -7884 -4039 0
6448 -7211 -2224 0
-9183 4911 -6504 0
-6172 -4000 6972 0
-6380 -7623 5776 0
9365 -9929 -5273 0
-4363 -7399 -1373 0
-6171 5305 156 0
-4437 -8998 3253 0
8516 7884 6435 0
1669 -3825 -2557 0
3306 -1086 -8117 0
9109 6267 -4146 0
3010 -8628 1175 0
7490 -8702 -5449 0
-1351 9387 2144 0
6052 -9791 8027 0
258 -9807 3944 0
-1212 3232 -9910 0
-9340 5794 -4138 0
1604 -1429 8550 0
6862 3299 2259 0
1055 6431 8675 0
-9862 9008 8803 0
9620 6815 -1743 0
-6394 6034 -3235 0
7389 3905 -433 0
978 8119 -289 0
8491 -5785 -5120 0
8288 -677 8958 0
2865 5350 -2434 0
4930 3543 -6238 0
5830 9214 -4035 0
9731 -1197 1775 0
-1594 7370 -4953 0
3036 4533 -7992 0
-9998 -4593 -3536 0
3520 -5794 5204 0
5565 -8735 -3281 0
4158 5491 8514 0
-5770 -3473 -9537 0
-8094 5065 -9953 0
-866 -6835 6817 0
2173 315 -2169 0
-9018 2775 -2434 0
-2510 6745 -3583 0
2868 1838 -4027 0
-2175 3720 5541 0
5291 -1211 -981 0
-9244 -1047 -7894 0
-8290 -5755 1334 0
7878 -8251 -4024 0
-6717 1455 5790 0
-9206 -3257 -3301 0
-4597 4106 4806 0
7292 -5792 7563 0
-3053 5179 5985 0
-8144 -9235 -6882 0
-2915 -6849 -6579 0
2617 -338 9881 0
-2906 -2081 6535 0
1390 3485 -3602 0
-8292 -8803 4080 0
1094 3601 4400 0
-9417 -8897 9325 0
5611 1692 5515 0
-912 9298 6792 0
-5655 -5714 5417 0
8432 -3476 5454 0
7263 -126 -5973 0
2200 1219 -5188 0
-7684 6544 9822 0
-4863 7682 4492 0
-278 -2173 5015 0
-3887 8614 8408 0
-606 -8922 -7569 0
3544 -5741 78 0
1012 7637 5379 0
9991 4513 5707 0
1808 7672 132 0
-6464 4415 9648 0
5395 -9664 -3558 0
-1489 -806 -7701 0
5825 -9734 -7780 0
-7287 -1692 -2151 0
5229 1331 -9396 0
-3639 -641 5579 0
-4351 3495 5245 0
6756 7311 -8307 0
-226 -2957 4787 0
2517 8485 -4010 0
8157 -5187 5768 0
5934 -7809 176 0
4354 7546 -6945 0
8616 -3149 -3536 0
166 -6800 5843 0
-1676 -1991 -9353 0
-7782 -5287 -2365 0
-8170 400 4533 0
-2869 -3626 149 0
9227 2352 1693 0
565 -5986 -4072 0
59 2784 5149 0
-5284 -1779 8319 0
-3399 8276 -9796 0
-243 -2412 2766 0
-9751 4834 -8889 0
6900 -5374 -9116 0
-9306 4675 1997 0
7999 9257 -7727 0
8026 1118 -2586 0
-7719 42 -6370 0
-4616 3231 -8616 0
-7053 -6982 1218 0
-6014 2458 6343 0
8240 -288 -6809 0
-2801 9635 4886 0
8981 -2256 1583 0
8105 -1241 -5186 0
-3390 5697 2799 0
-5498 -2511 2258 0
-6270 7146 7668 0
-8544 -2181 -3790 0
-4009 2408 -5593 0
-7338 -500 4648 0
-8774 9028 5708 0
6303 -1567 1852 0
1764 -5896 -1842 0
6357 -4386 9172 0
882 -881 4818 0
-539 -4994 -5465 0
-2924 9246 -6759 0
5813 3469 -5390 0
4519 -9677 -671 0
4756 3538 1342 0
7837 -2009 -1890 0
-2216 -5570 -6365 0
7570 -4843 2358 0
9026 6505 -8643 0
9545 -8633 -8772 0
6276 -614 6162 0
-9682 -5270 -192 0
8712 -8354 -9632 0
-7683 684 1634 0
-2811 8130 -6099 0
-3039 -9122 8613 0
2993 -4196 -1094 0
1863 985 -5708 0
-9238 -8207 7774 0
-3839 380 8928 0
784 -6191 -169 0
-8211 -7878 -8801 0
-89 -9573 6858 0
-3694 -3687 8271 0
153 4445 4307 0
6848 6119 -5634 0
6669 -8716 -605 0
7606 -1255 4321 0
-5126 -7160 -7214 0
-3327 -6507 6536 0
-6620 457 -8095 0
-4022 -7668 -3120 0
2757 2770 -1115 0
6095 -721 -5825 0
1595 7528 -3521 0
8223 3079 1870 0
4411 1484 5333 0
7253 2488 9333 0
-8266 91 4307 0
2398 7872 -1561 0
8435 160 -8415 0
5819 -6799 2009 0
1570 9873 8277 0
-6590 -1404 -4896 0
-8566 -493 7412 0
-5303 -7895 7520 0
8637 891 -6855 0
-1994 9890 -8980 0
-2383 1815 -2632 0
-6805 -1001 5918 0
-1546 -9153 1243 0
4927 -3099 -5408 0
-7295 5371 1519 0
-9440 1454 -3655 0
3053 -6572 9837 0
-7550 -9108 4392 0
8035 -733 4316 0
-3974 9358 1181 0
764 1082 4751 0
-5552 2315 566 0
5968 -6129 8135 0
-7490 8881 -2267 0
-9975 -3411 3793 0
8535 -8112 -7429 0
7512 2442 -3165 0
5277 9708 2311 0
-9298 8910 6093 0
4991 5595 -6487 0
-2240 -8379 -4315 0
-3320 1845 1867 0
-4989 3097 1983 0
-9971 -4877 9947 0
6277 -3967 2732 0
-2202 -3170 8147 0
-8589 7489 2140 0
-6324 7579 -1104 0
-4656 6751 6920 0
-4848 -7266 7298 0
7371 390 6198 0
-2311 660 3778 0
5322 -1894 -6050 0
51 7487 7369 0
8380 1749 6754 0
6876 -3159 -1744 0
-4081 1310 4341 0
6154 1254 1760 0
6246 1242 -5319 0
-2788 319 4419 0
7045 3615 -7220 0
2898 4235 6599 0
-1028 -7846 7978 0
4297 7213 -6400 0
2518 6576 -4033 0
-5803 2312 1755 0
6640 9252 5510 0
8342 -3465 6245 0
-8900 -1510 -2168 0
-9978 2986 412 0
4999 -5331 4450 0
-977 5052 -5159 0
-332 7500 2142 0
5110 5004 5397 0
3667 -1061 -692 0
-2655 86 -9867 0
2796 1357 -228 0
-9292 7295 650 0
-5670 -9882 -3872 0
-1323 -5049 2568 0
-7691 -5783 8659 0
-2408 -4149 8307 0
-3806 6962 311 0
2302 5866 7478 0
-4641 -2672 -388 0
-4818 -6090 -1082 0
4029 -6037 9642 0
8092 -3549 615 0
-2667 5232 1100 0
-1345 7484 -3901 0
5001 -6232 7503 0
749 -635 -7156 0
838 8080 6970 0
9824 -5556 8998 0
-1091 -6673 -322 0
-2663 -8287 6796 0
3476 3746 1946 0
1859 -2857 1522 0
6396 9475 -6351 0
-7834 -6453 -4843 0
967 -9021 -4161 0
-9127 -9412 4011 0
-1714 9851 -9900 0
-2152 9358 -1671 0
2008 -2161 268 0
-7877 6844 -9416 0
2791 -209 -4546 0
-8263 5718 6366 0
8064 -7704 3320 0
-8709 4611 662 0
-594 -9193 -2183 0
-7797 -6218 7405 0
1279 6412 -5414 0
1678 -8815 -1039 0
9645 4147 -6167 0
-7235 -8091 8759 0
3432 5273 174 0
800 -1589 -78 0
-5468 -5433 -4685 0
-7601 1482 1285 0
-2071 -2060 -75 0
-607 -3825 -4503 0
-2031 3839 7406 0
-5959 2265 -8013 0
5957 4272 633 0
-7029 -4490 9998 0
8388 3020 -7324 0
-2690 7579 909 0
-2168 -5532 2359 0
6117 8914 764 0
-3222 6306 -9782 0
2189 -4663 -6388 0
-7321 -9302 -7828 0
3006 -728 7583 0
-7830 -9524 -5232 0
9429 -9092 -1099 0
-1568 9478 3943 0
-9513 -3463 -5385 0
3740 9834 -3083 0
7553 5474 1970 0
3373 -4569 9645 0
-5176 -7122 -2558 0
270 -4726 7204 0
5419 -9224 5347 0
-7760 5143 -2348 0
-4151 -311 1580 0
-1575 -8115 -9446 0
7789 8855 1709 0
-8863 9153 5750 0
-9097 -6398 -7974 0
6294 -4194 -7466 0
-731 -8747 3980 0
1739 -9390 -7959 0
7544 4888 1739 0
6941 -5723 4061 0
-9261 2333 5985 0
-1369 8090 -2776 0
-3263 155 -9908 0
-9132 5345 8689 0
-8493 -3659 -8347 0
-8819 2685 2569 0
-904 -6446 -6643 0
3850 9052 -2150 0
8908 7266 -5998 0
1447 -4726 -3206 0
-7152 8819 5040 0
-8361 -7979 421 0
-5689 -7339 -497 0
-3692 -5903 -3049 0
-5373 -983 -7069 0
9385 -2986 9724 0
20 -5952 5061 0
2028 -1057 8789 0
8650 -6645 -7948 0
115 -2149 7528 0
2467 6489 7012 0
-9786 7583 4669 0
-1251 1048 2592 0
-9678 8018 -3805 0
6352 2060 9895 0
-1772 6309 -5912 0
945 3067 -6295 0
7228 6944 744 0
3437 9109 -9037 0
9203 -1690 5568 0
1811 7330 2937 0
586 5880 1651 0
6464 -9143 9051 0
8399 -1633 -8381 0
4255 -683 -1986 0
-9287 5741 -6786 0
-8945 6884 -1389 0
-368 -4071 9376 0
-2658 -7400 843 0
-2858 -3282 4039 0
1631 -6970 9457 0
1365 -956 4422 0
-5808 -3832 506 0
9178 797 1655 0
-246 1690 -158 0
-322 9740 9028 0
-886 -4313 3627 0
3338 5557 8317 0
32 5976 -2658 0
4362 5448 2877 0
-3881 -3886 -9808 0
-1766 -9480 2491 0
-2547 -4957 2326 0
-817 -2245 -7095 0
4876 206 6668 0
9979 -1264 -1909 0
9629 9043 345 0
443 -638 2083 0
1950 -32 9857 0
6491 4997 3276 0
-6223 -8189 -4680 0
8283 7653 7414 0
-4051 3305 -295 0
-7367 -4061 8346 0
6769 6385 1069 0
7579 -6590 268 0
12 6392 6963 0
-145 5923 -4798 0
3445 9005 3652 0
-8771 3943 7391 0
-449 5070 2127 0
7327 6984 2198 0
9673 2022 -4030 0
352 -5894 2956 0
2594 5299 5119 0
-1411 6920 7326 0
2097 9870 -5457 0
-5184 -7919 -4283 0
1226 6364 -8665 0
7060 -6305 2708 0
-4945 10 4319 0
-8897 -3550 6225 0
7675 8451 2651 0
7053 8088 -6957 0
1682 -8907 -8918 0
-9333 -9890 -1596 0
4587 3276 8335 0
9818 -5233 -1968 0
-4383 -4662 -2544 0
-5365 7612 7953 0
2606 -9129 -6180 0
6466 -4867 7793 0
3599 5651 -3660 0
-1457 3848 4102 0
-2653 -5744 9359 0
-5750 -9757 -3712 0
-1653 -570 3073 0
-6976 -9742 4597 0
9507 -8446 -7084 0
-7696 -225 1998 0
5129 4282 4665 0
-9832 -3742 -9849 0
-5231 8963 4643 0
-8342 8137 6498 0
2613 6100 19 0
1661 -9479 2028 0
-9374 -4495 -4828 0
4634 2139 -8354 0
-172 -8858 -8938 0
8036 497 7313 0
-3505 493 -9624 0
7048 -9351 -2835 0
-8289 -3411 6943 0
-5827 -774 -1982 0
-6626 -8805 7885 0
-8428 1853 -5029 0
9378 1402 9872 0
-5084 -8483 -8650 0
6755 4983 4068 0
-1660 -8591 8915 0
8357 -3505 2336 0
2225 3078 -3319 0
3115 9842 3188 0
3740 2036 -2795 0
-6684 -7375 7863 0
-8778 2726 1148 0
-2631 -5523 8343 0
15 5052 2984 0
-3541 -3611 696 0
3309 409 -4496 0
4620 -4680 6278 0
9467 4599 6354 0
-6724 -8502 5277 0
6886 3297 -9792 0
3650 3077 8757 0
-2406 9165 8976 0
-5302 -8480 5133 0
9693 2779 -6422 0
-8253 7265 -9497 0
-3485 5387 5560 0
97 5116 -3713 0
631 3366 -7624 0
-7607 -607 7267 0
-7072 5898 9858 0
5892 7491 8999 0
-1603 -8005 2083 0
-8010 -5045 -390 0
-7736 3383 -719 0
-7501 3564 768 0
-1347 9438 1467 0
-9420 -2043 2128 0
2948 2155 -1649 0
-6625 3394 -8008 0
2026 -3175 3829 0
-1467 9972 1551 0
2602 -822 -8959 0
-6581 9297 2230 0
3238 -2253 2520 0
-4772 7915 3373 0
-7854 6420 -8972 0
5688 5203 -6642 0
4594 7630 -8929 0
-6418 -39 7446 0
-4773 7824 -3996 0
1145 2546 -6818 0
7445 -3066 2341 0
3429 5537 -5325 0
-9436 -8366 -6978 0
-1938 2274 -3611 0
-8095 -6346 2653 0
-5115 5214 -4278 0
308 4659 -4411 0
-6633 -3389 -5294 0
-9056 3570 8486 0
-9272 -4549 -2215 0
-4116 -5300 -1008 0
7536 513 -4259 0
9257 7325 9877 0
6767 8048 3939 0
3086 -7787 4407 0
-2167 -6655 9573 0
-4488 1520 -6311 0
7981 498 7609 0
15 3909 3037 0
3329 -4792 -749 0
-7966 8904 4579 0
5990 -1192 -7492 0
-9354 1738 4637 0
-6818 -7064 -8919 0
5724 -6097 -2263 0
1684 -2652 1022 0
9747 -2962 -170 0
-6700 -4656 6366 0
-6958 4786 -5272 0
-7454 3743 -9311 0
2674 -1808 -5721 0
3249 -8067 -6990 0
9784 -1038 -6544 0
-9429 -4799 6032 0
-1474 6985 -5050 0
4791 -4436 -6300 0
-991 7985 -2350 0
4859 -1333 -1246 0
-1624 5036 -8420 0
7873 -5625 -7838 0
-8827 -3793 -5147 0
408 -7154 -706 0
-6195 7974 2867 0
4727 -3677 -6733 0
-1556 1106 -3421 0
-4741 -5790 -3747 0
-2406 -3771 1699 0
-5437 -3247 -4069 0
3449 7077 6465 0
-4215 5431 4175 0
-8649 -3004 5457 0
2839 4996 1316 0
9774 -454 7758 0
-733 686 -2169 0
3215 -8798 2354 0
4563 -1253 4193 0
1022 -5408 8151 0
3485 -9659 2526 0
1051 7243 -7513 0
7170 -1527 -1817 0
5882 6606 -3673 0
5096 4917 5783 0
4490 -6486 -7664 0
-8518 -8230 -3117 0
-1662 -1132 -2289 0
6738 6702 745 0
9748 8817 -5540 0
5225 -2913 8249 0
-9507 9004 -3372 0
-60 6198 -7971 0
5477 -3479 5844 0
272 -8249 9589 0
1803 -2200 -4209 0
-7031 -1941 44 0
-9389 8198 477 0
-4834 -4538 2502 0
-4047 7531 -4597 0
6330 -8761 6410 0
5233 9132 1901 0
-7679 5734 -8293 0
2048 2727 5212 0
2549 3302 4238 0
-3178 5160 6304 0
-247 -4050 1108 0
-9224 1015 3408 0
5348 -9650 4480 0
3256 6511 -5852 0
-8571 -9205 3826 0
-7403 2789 9278 0
9815 8356 4092 0
-7626 7485 643 0
-5526 -5355 -4619 0
-5137 3600 -1609 0
9060 -3097 -206 0
6658 3421 -2382 0
-5233 8537 5010 0
-4086 -8842 9784 0
8443 -125 -2970 0
-2133 -6488 4410 0
-5132 4135 6004 0
1383 1114 -2603 0
-4146 3392 -4925 0
1463 -3334 7475 0
-5327 8327 -5549 0
-5395 5595 -501 0
-1809 293 -7323 0
-803 -3894 -2390 0
-7730 9230 -8158 0
-3830 3705 -9393 0
-6858 -5420 6286 0
-1888 7892 3825 0
3505 9258 -4425 0
-8828 -6921 -4046 0
-3417 -744 -5742 0
7316 7859 373 0
8927 6733 -7739 0
-9520 -4624 -2883 0
5654 2633 8701 0
-21 161 -5164 0
1234 -6821 9874 0
8189 -7660 -3709 0
1041 6129 -4545 0
-9366 -9918 8243 0
9697 3284 -3689 0
421 2320 2293 0
9046 6713 3332 0
9329 -8680 -3964 0
8390 4294 4976 0
-9824 -973 7528 0
6785 -9229 6043 0
7444 -3252 5426 0
-9325 -770 -3178 0
9448 8339 9427 0
2074 -1854 7101 0
1400 4679 -1021 0
-2150 2688 2346 0
2679 -3131 -394 0
-7311 -814 -478 0
3779 511 -8728 0
1820 -7794 -7321 0
-1536 -3709 1257 0
9256 481 5702 0
-6989 -6732 2636 0
-4309 -1498 2782 0
7388 -6334 -4905 0
-4566 -8362 -1442 0
-6193 -9366 -6898 0
2445 -5695 -1270 0
4442 -6898 -6718 0
-504 355 9029 0
-5511 8880 -1971 0
7648 6084 -1874 0
-7641 1191 -3872 0
-8515 -2393 9441 0
2903 -7550 2076 0
110 6781 5042 0
8394 1985 8536 0
-58 -2382 5646 0
6605 -1196 2114 0
-2994 3937 -9986 0
3576 3537 -606 0
3182 3036 -1886 0
-1300 6120 256 0
-6253 7834 2238 0
-5539 -6260 6323 0
8400 -9537 9231 0
-3341 -3799 3087 0
-5829 4236 8758 0
-2896 5134 2612 0
-9706 1254 -9322 0
-779 9100 20 0
8591 9421 -9227 0
-5725 -2329 -9030 0
2113 9449 877 0
-9696 -2144 -3566 0
5573 -6223 5414 0
1577 -770 5050 0
-1463 -3200 -8926 0
-7583 7462 -222 0
7887 -6995 -242 0
9077 4539 8868 0
3698 -2924 -1701 0
-2435 4486 -1964 0
3236 -9525 -2884 0
-9001 2254 -1431 0
-5521 -1949 -2152 0
7491 -953 1264 0
-7015 -782 5122 0
-1262 -6994 -9219 0
-741 1567 -5939 0
7458 358 845 0
-7247 -2903 -8056 0
5366 -259 -914 0
2694 -4883 2459 0
7103 -9981 -7176 0
-4157 4721 -7842 0
-7327 -1635 -2340 0
974 -1676 1732 0
47 -7556 4246 0
-3208 -1780 1901 0
5617 5898 6335 0
-9616 -5666 4721 0
-8995 -8551 -7992 0
-9989 2243 -4036 0
-5779 9958 -2108 0
2391 -5092 9935 0
-4960 9453 1648 0
9588 6384 -1405 0
4486 -4162 -4548 0
5713 6273 -9531 0
-6514 78 -8142 0
-885 -9164 -5838 0
-5151 -499 7156 0
-5932 6477 1947 0
1108 1290 7224 0
7096 4669 -3237 0
5744 7753 8548 0
2436 3175 -9548 0
-3129 -2494 7832 0
-8213 -7240 3188 0
4596 3863 5935 0
2909 -9724 -2815 0
-6958 -6584 -9428 0
1229 -2379 -3975 0
433 608 -703 0
-4132 7689 5142 0
-4603 -2680 472 0
261 7152 -4968 0
-4000 5004 5643 0
-8162 9022 -7301 0
2276 -6041 -8476 0
-4786 -7887 -1089 0
-5563 -6241 -6092 0
7120 4826 -6423 0
-1756 4944 -2741 0
7702 3840 -2634 0
-2482 128 6880 0
-2621 -1961 -9374 0
-1182 -5670 2921 0
-2022 1086 -1248 0
-17 -9881 7655 0
5134 2617 9679 0
-3781 3683 -3804 0
1223 9744 8451 0
7187 1363 6552 0
-4654 -8719 1296 0
-1161 1384 2206 0
4643 -3387 -922 0
-2319 -7218 6504 0
4065 4146 3234 0
-3129 -7899 7782 0
-7375 6368 -8503 0
7226 -2751 -1985 0
432 7944 -9859 0
8200 6708 4399 0
6391 -2662 2794 0
3819 -9403 -2676 0
6741 6187 1366 0
5067 -6676 -848 0
3049 1817 5165 0
2733 -7883 -4573 0
9762 3400 9090 0
-1512 -9810 9822 0
-4062 -7031 -6193 0
-2088 6417 -4989 0
6578 -2129 -1026 0
4615 2355 -1502 0
-1168 -4072 -5661 0
-5736 7452 -9276 0
113 45 4500 0
-7224 -3652 3750 0
-8061 -3270 -3906 0
5165 9054 -5457 0
-2879 8877 -3633 0
1601 -2062 391 0
9267 -5973 -55 0
2506 -8272 -8419 0
6431 4937 8146 0
-4715 6964 8699 0
-3229 -559 -67 0
-7660 -2803 6264 0
-6218 -5911 -382 0
-7819 -2123 -9639 0
-8991 -8079 -3149 0
-2304 -6831 2119 0
-4362 3408 -7468 0
-5202 7143 2860 0
-9835 -7101 7409 0
4477 -3195 4097 0
-7542 -742 -2053 0
8555 -4763 5955 0
-6576 6169 4086 0
1172 3147 -3562 0
7463 -2926 -9143 0
9672 2195 7887 0
-675 6255 -8196 0
-4184 1013 -1879 0
6109 -8978 4426 0
9624 -6928 -4271 0
7715 -4042 -4333 0
-5408 -6515 -2368 0
7613 -4664 1999 0
-4150 1737 -1058 0
2343 8277 4140 0
-6855 3599 -6529 0
-2072 7662 2396 0
-5440 -2656 -8547 0
2770 -1047 8481 0
-3050 8652 -1830 0
8664 -7346 6607 0
1034 7230 8039 0
-4268 -915 3482 0
-54 -528 4462 0
1769 -4400 -3137 0
8705 -421 -8465 0
-3774 -6192 -7330 0
1689 -203 -9214 0
-2462 2800 9831 0
2698 -8862 -2415 0
8095 -3667 2639 0
-8814 7240 6855 0
-3680 -2684 5789 0
-6685 4327 1249 0
3592 -8367 -2488 0
4220 1343 6764 0
-8276 5089 6136 0
-5590 7937 2197 0
-8534 5920 1969 0
9356 -1300 5773 0
-9120 688 473 0
-6066 -7747 -9125 0
7281 -8285 -2140 0
-8261 7951 -5464 0
3967 3724 -9872 0
4685 4225 -2615 0
-1237 -1799 4056 0
-7461 9054 3726 0
9310 3874 5919 0
6488 -8432 6556 0
4719 6070 5873 0
4534 881 5420 0
4006 2759 -4353 0
-1058 6114 -3486 0
3711 -9752 -7270 0
-3843 -8212 8634 0
-1868 1512 9425 0
-3429 -6824 -3508 0
4511 9922 5288 0
-1286 6326 9737 0
-7006 8615 6963 0
-8981 -7740 -2734 0
-5535 -4307 4127 0
-7933 -2120 -9914 0
6974 9579 8658 0
-8890 -3447 -9172 0
-1319 -5136 8805 0
5434 -471 4744 0
7851 -6898 -6511 0
9480 8907 3904 0
1076 9633 -819 0
1596 8229 -8890 0
-8349 -8364 -6418 0
719 -8505 -2004 0
-3897 1072 -8696 0
-8876 -9740 -631 0
1328 -5672 -2744 0
8863 -7493 -182 0
-1922 -7757 -1096 0
-3538 -7391 5018 0
3123 8526 -4263 0
-6533 5743 -7551 0
9064 4214 2070 0
2690 1051 -6672 0
-5956 6701 73 0
-7036 3695 -7516 0
8246 -8869 -1159 0
-6300 2271 -9956 0
5371 3626 -5296 0
-6855 -6939 -6657 0
-4251 -832 -8055 0
7507 -1156 7261 0
-7690 -6617 -7727 0
6321 -4392 -6949 0
-4720 -8719 -652 0
7214 -2754 -9597 0
8890 4282 -6132 0
1971 -4793 5955 0
9923 -1891 -981 0
-7640 -3479 -7253 0
-2694 -3549 -4232 0
413 810 9361 0
-2966 -4431 -9693 0
-1219 7874 -4755 0
6173 -3920 9635 0
5519 -1711 4325 0
2919 -780 328 0
9030 -7741 6323 0
5846 4462 4544 0
-8915 -1101 -1236 0
6377 1963 7955 0
-3666 -2678 9592 0
1314 9341 8791 0
-1130 4415 -9668 0
-9535 4003 7313 0
3332 -1094 4510 0
5365 -4481 -6044 0
4461 2301 -5180 0
-7452 3241 -122 0
5870 -1249 -6348 0
-2893 9255 -4940 0
8401 4561 -6778 0
6804 5853 -7433 0
-489 -1729 -4922 0
-3394 8362 -5483 0
-9931 7257 419 0
-6854 9685 3022 0
7817 -8413 4914 0
-7065 4146 -9913 0
-9466 7934 -8668 0
-8031 -5080 -572 0
2859 4232 -9392 0
670 7221 -5130 0
-5313 -4130 5095 0
7397 -3023 -957 0
9092 -2164 -5543 0
1723 -1807 4208 0
2712 -3387 -3182 0
-4833 -839 81 0
1548 122 4377 0
-7525 -566 7503 0
5714 -170 5805 0
8817 -4576 7153 0
-9534 -2919 -1719 0
5698 2446 -9635 0
3856 9491 4128 0
-9326 8683 3702 0
6428 -2235 5319 0
-2222 7897 -1051 0
-9035 7115 -1152 0
-9538 -9895 -3825 0
8565 2236 -6627 0
-7133 8080 8548 0
-9903 1581 -4078 0
-9935 -2780 -956 0
9615 7862 -5595 0
-5030 -8656 -8260 0
439 1738 2108 0
9722 -7834 -8767 0
-6473 8831 -4560 0
-4343 -6259 -2656 0
3317 -7450 -9416 0
-3949 -9093 1381 0
-5435 -6369 6568 0
4419 9783 8292 0
-4681 4528 2270 0
-6620 5716 -1824 0
5125 -5438 4154 0
-9068 3418 4350 0
7079 3523 -7503 0
-1107 -1413 -5654 0
945 3760 -4616 0
-7514 2083 6795 0
-7977 -2607 4983 0
-1692 -1011 2839 0
-7585 4172 5184 0
-197 -9053 1647 0
-718 -939 -5294 0
5675 -4083 1639 0
-7431 -2665 7130 0
-7344 -1349 -5202 0
8591 5907 4901 0
-4659 2573 4506 0
-7899 1527 -4653 0
-5863 6777 5411 0
-2646 -5764 3034 0
-7666 -9805 5267 0
648 1226 1584 0
7329 462 3873 0
2210 -5700 987 0
5627 -3479 -4715 0
4943 -5766 8215 0
-5317 -6975 -1069 0
5892 8527 -9533 0
-8652 578 6261 0
-5834 -6052 -6287 0
9605 -778 7527 0
-465 -3609 -6014 0
-466 -5361 -6883 0
3437 8231 -7099 0
4109 6123 -265 0
-3500 1128 5327 0
5729 -8531 8989 0
-2750 76 2831 0
494 -8088 1213 0
-4866 6623 8977 0
3890 3982 9545 0
-4858 -1750 2577 0
5713 -4583 -615 0
4052 -512 -7198 0
2522 8939 927 0
-5236 7638 -5648 0
-6584 563 9277 0
-8596 8898 3344 0
7858 -9610 7393 0
2043 5268 8412 0
-7627 -3868 5731 0
8150 -5613 -2852 0
-1019 5723 -5155 0
9028 9927 6861 0
-3848 -7936 -9081 0
-6017 8 -7353 0
-9569 4954 -7263 0
430 3290 -618 0
-6429 -5564 -258 0
1512 1308 -4437 0
-1883 -8536 -1308 0
-3680 3004 -537 0
-5503 9987 -2434 0
-1297 2276 8638 0
-9765 1396 -350 0
1859 1425 7424 0
8711 -7131 -5078 0
-2527 2954 2748 0
7780 -7009 -3665 0
-1034 1757 7916 0
-9093 -8556 -9120 0
5343 2537 3769 0
-963 -9847 -943 0
5239 7784 5190 0
7384 9643 3350 0
-8644 7928 5607 0
4365 -312 -3631 0
3757 -931 9971 0
-3926 -8283 4036 0
-4703 -1218 9626 0
5816 -185 4636 0
-1828 -8766 -2618 0
5900 -9288 -3322 0
-5200 -2373 -4096 0
8188 -6624 -7577 0
-496 9098 -3636 0
-3799 -6832 2870 0
7902 3999 -9694 0
-3714 6206 -5931 0
-5001 -6209 7851 0
7048 -9862 3337 0
2908 -696 -968 0
-8084 -246 985 0
8453 6629 3977 0
7030 -163 6511 0
-5247 7360 8475 0
-4618 -6507 -4194 0
-1680 3999 2384 0
6404 4535 -7091 0
76 -5398 8811 0
-4279 -7945 3304 0
3163 9349 -5180 0
-3845 -7871 -4017 0
8677 -7292 3382 0
8406 7805 -2272 0
7933 2429 8242 0
6999 -7132 4481 0
-5140 325 -319 0
9391 -8352 -6347 0
8579 6405 9342 0
3855 8052 9130 0
-1427 1595 5132 0
-6761 -4417 -8436 0
-6353 3733 -2973 0
-6957 -4717 5835 0
1757 -5942 3764 0
-377 8392 -5003 0
-8516 8650 -5020 0
-4299 8155 2032 0
-6634 176 -6428 0
-5209 1532 -4479 0
-8881 2075 5810 0
-7216 563 2856 0
-4077 -9325 6105 0
-1593 3938 -7034 0
5778 4557 1836 0
-2814 7579 6419 0
2175 9166 -8762 0
6416 -2533 -643 0
4193 8664 5830 0
9099 -2700 -4072 0
7547 7019 5292 0
-895 -1888 -8706 0
5076 4510 7443 0
-9192 3823 8354 0
-3738 4496 9287 0
-3313 8912 1501 0
-1667 1301 2504 0
-3232 -2332 -9257 0
-3726 -5880 -8880 0
-9935 6814 5118 0
6103 9652 -601 0
3439 -4403 1074 0
-4794 9562 9747 0
2819 7678 -3591 0
6889 -487 -8812 0
-2512 -4261 -6523 0
-4664 -5299 2140 0
3178 7697 862 0
344 -5670 -8137 0
-3921 9406 6270 0
5068 1647 -4534 0
-8684 -8831 68 0
-1241 -6385 -9959 0
-5077 -2965 6743 0
8403 4543 -7427 0
-5679 -2735 -6277 0
-515 9631 2941 0
-5099 -1465 -4129 0
-4879 2074 -9032 0
2748 -1783 44 0
228 -4891 2428 0
-4139 5574 -7553 0
-6404 -3069 -9442 0
5305 8925 8573 0
137 -8504 7344 0
-6601 6930 2994 0
7704 6871 -2399 0
-1693 1442 7458 0
5120 7833 -1348 0
4089 5888 -6224 0
5533 1782 1355 0
-4766 746 4497 0
-5096 2764 1516 0
4942 1026 -3653 0
-723 5312 -1382 0
5591 7431 -4185 0
8757 5413 -2948 0
6260 3110 -4544 0
9341 -2734 -1976 0
-8716 3568 -3913 0
7035 -8659 2714 0
4068 2532 -8011 0
260 1717 -4477 0
2444 -7592 -4456 0
-3594 8303 -3637 0
-3641 -803 -2195 0
-5762 7389 457 0
-6546 -9112 4914 0
-8202 8612 4267 0
-5119 8886 50 0
-1601 -7373 -9075 0
-6611 -7481 8527 0
-954 5003 1729 0
6900 935 8594 0
8248 7894 -2175 0
8247 -5270 6662 0
9928 4186 -3448 0
724 1087 -6220 0
-1121 4089 -9474 0
-7479 6689 4270 0
-4936 8168 -7721 0
2875 5961 -9270 0
-2481 -3018 4931 0
1656 -841 -7608 0
-8489 1855 8312 0
-5026 4562 3149 0
-1598 7109 5886 0
-8028 -7215 -4264 0
2180 6016 8576 0
6113 9221 6673 0
3581 9253 1520 0
-858 9020 -6945 0
5759 4884 -6195 0
-5121 -3755 110 0
-9256 -1153 -5521 0
48 -5726 433 0
3820 3218 -7578 0
4429 3655 784 0
-1586 7846 -4400 0
5920 2324 -9491 0
9066 -3658 1230 0
-954 1215 -5190 0
-8105 -9959 -3487 0
-4915 -4964 -560 0
-1594 203 7985 0
5829 -2955 -1947 0
-3056 622 -2203 0
-2062 4499 -8228 0
5313 -9078 3092 0
-8971 -9966 9126 0
-4424 1089 -5016 0
-1865 6090 -1864 0
6716 -5985 1166 0
4378 -8950 9157 0
2733 6079 -5665 0
3695 200 -2160 0
-356 9629 -6275 0
4781 -9957 4711 0
-6647 6070 -456 0
-6749 -1425 -2693 0
2797 1756 6538 0
-551 7551 211 0
-5337 -6368 -6218 0
-3843 4990 -1372 0
-6730 -1589 -9228 0
-7446 2564 -4618 0
-9491 -6726 -9814 0
-1342 4229 -3337 0
-6674 4717 -272 0
-7632 9525 579 0
-5803 -5565 -4465 0
4946 5737 9767 0
-2242 -4606 8790 0
626 -9235 -8611 0
8392 6957 -5721 0
-9955 6544 -1849 0
9451 -8183 -2346 0
-837 -6739 4552 0
-7341 -3049 5185 0
4687 3495 3771 0
-8590 6194 -1420 0
-9539 5070 -1254 0
8194 -2687 -8945 0
989 8015 9132 0
4488 -6593 7511 0
3848 1145 7808 0
7599 846 -2447 0
-1257 -1847 -7446 0
8906 5247 4979 0
-59 3515 9153 0
931 -1965 -4270 0
-9629 6037 -8048 0
-6965 6788 -8054 0
-8823 9489 2915 0
9843 -1278 -7308 0
1246 9873 6408 0
6125 -1239 -2683 0
5306 -4603 -2571 0
8594 -9949 6294 0
9251 -1102 6058 0
-2885 -1158 2027 0
7935 -1672 -48 0
-2599 -7606 1075 0
-7766 3599 6516 0
-4822 3461 6182 0
2890 -3945 7278 0
9937 5684 -1510 0
9798 4594 1608 0
9974 2795 -122 0
6347 -609 7357 0
8639 -7220 -8309 0
-32 -1740 7162 0
1636 -2005 -5545 0
-8930 8373 9015 0
-4912 -1298 5885 0
7349 2708 4815 0
3979 -613 4261 0
-8841 7212 -7650 0
5943 -5076 2229 0
9058 -5634 -2563 0
7021 6293 -8131 0
4265 -9939 9003 0
-8310 -5214 -9416 0
-697 6895 -8837 0
-9172 -9106 -5829 0
-5700 27 1503 0
3354 -3453 5488 0
-6086 -990 3791 0
743 3674 5564 0
-8848 8503 7869 0
-5557 -2425 1477 0
-2355 9237 -9515 0
1305 -6552 7003 0
-2822 -9870 -6328 0
204 3673 4853 0
9040 5128 -5726 0
1111 9673 -2576 0
-3429 1466 -3083 0
2391 9923 5528 0
4952 7240 8121 0
-4202 -1137 -8895 0
5447 3423 117 0
-271 -3300 -905 0
1075 -2662 -4890 0
-8717 9558 6599 0
-1407 -2554 -4127 0
2981 3993 -8846 0
7195 6315 7630 0
-6707 -1132 -7198 0
3869 8453 -8234 0
-3480 8411 1274 0
-5764 1058 -1461 0
1743 -1709 -5274 0
4718 -7045 -4473 0
-9407 -9674 8344 0
8422 -749 7655 0
-5298 9282 4936 0
-2412 3919 5234 0
276 2650 -8257 0
2059 -3702 -8001 0
9848 4005 -1612 0
-2339 5856 -7149 0
3007 -7454 4453 0
-5210 -724 -2188 0
-5542 -2768 1307 0
3764 9224 -3327 0
-9597 -6113 4821 0
6382 3459 8024 0
8278 8393 3748 0
5840 -5353 -1412 0
9522 3986 -9934 0
-5516 4406 1451 0
153 8405 8960 0
2454 9949 -2950 0
6761 -8531 -7025 0
-295 -2319 -4944 0
6057 47 6012 0
-6332 8231 1210 0
-9885 -1177 7140 0
-1154 1432 -2975 0
-407 7112 -3184 0
-8437 -3528 9760 0
-3764 123 -5597 0
4615 -8068 -4926 0
7123 -3116 -3555 0
9947 -5552 -3508 0
-1146 8088 6058 0
-2621 700 3655 0
133 -6423 -8669 0
-1064 -6415 -6223 0
3244 8143 6138 0
103 -2208 3812 0
2175 2434 9709 0
2520 7962 1316 0
-8240 7301 6163 0
3075 6595 -7687 0
-6065 8908 3231 0
-7194 179 -4761 0
41 -4148 6312 0
2245 -7426 -4134 0
-9833 -2584 9380 0
-9665 -3956 7506 0
-3552 -5111 6072 0
-7775 3586 -9971 0
5570 -9443 9881 0
-8089 -5397 6671 0
-1767 5531 -9525 0
-8159 3250 -4714 0
-6857 -2310 5041 0
8350 -6443 -1435 0
-4012 -691 4832 0
7604 -1384 -8068 0
7864 -7400 -4556 0
-5509 8937 7929 0
-9302 5541 6078 0
-1183 7302 -4820 0
-3463 -735 1661 0
-7019 -9339 6028 0
-2470 7466 3337 0
2182 1472 4832 0
-3557 3264 1349 0
7324 6886 -3158 0
3001 -4865 -959 0
7380 367 -8900 0
-6864 5504 3095 0
-87 1358 1289 0
-2179 -2578 6871 0
-5805 -2576 -2192 0
-4200 -4105 8681 0
-7520 -9563 -360 0
1809 -3584 2884 0
2920 -4708 -133 0
5263 4969 -1813 0
-4531 -5608 9753 0
6430 -3974 -2872 0
323 -9635 797 0
-5533 1492 1127 0
477 5097 587 0
-1045 -6524 -3564 0
3086 9569 2118 0
1834 4259 1320 0
5746 1921 486 0
1895 -2344 -367 0
-7622 -251 2321 0
7984 8075 -6020 0
-3414 3160 1036 0
-5822 2978 -3890 0
8835 1720 -6243 0
2459 4733 7777 0
4383 -8615 -8867 0
-1819 7981 -3287 0
2386 1874 -8064 0
5023 5341 -5563 0
6548 -8225 598 0
2377 9339 -8098 0
-8681 -9537 -855 0
7462 -9338 4079 0
-6772 1723 1640 0
7458 -8379 -7142 0
-2709 -3744 -3869 0
2048 -3880 -2868 0
5474 960 -7170 0
-1728 5319 -4667 0
5528 2571 -8134 0
-7700 2085 -8251 0
-9456 -682 -7138 0
5635 -7066 -4078 0
5455 9941 -4553 0
-1971 999 7578 0
-7829 6542 -5054 0
-9707 -4307 -8936 0
5438 -8918 5344 0
-8073 4786 -8436 0
3336 -4110 7182 0
4158 2862 -2654 0
597 -3546 -2436 0
3142 -3695 6957 0
-2534 -9345 8845 0
-4870 6716 -8858 0
827 2428 859 0
3513 -7410 2565 0
-8094 3739 -1262 0
4947 2 6122 0
5348 1466 7399 0
8119 -9377 -2772 0
-7727 627 9244 0
-5680 -7075 7919 0
6018 -3565 -3233 0
-204 -4476 -521 0
1498 9956 -2973 0
9595 -9627 -6452 0
-4939 4142 -6872 0
1477 1598 3079 0
-1428 -7941 4637 0
-4026 -1862 1252 0
-1579 -4560 9300 0
-3439 -2893 -3329 0
-870 4548 -4839 0
4476 -5032 8124 0
3440 3199 -1163 0
5986 -992 -3231 0
643 2279 -9240 0
6662 1412 -2696 0
1806 -5922 -7724 0
-906 -194 -2610 0
-6630 -7041 -8396 0
-8478 278 823 0
8988 8127 -1272 0
3476 -8940 -7744 0
-3612 8706 -7922 0
-543 -363 9975 0
-7905 -5506 464 0
8891 -3189 9362 0
-7612 -9352 -7519 0
-5648 -8604 -9838 0
-3016 -2395 3237 0
9100 -2034 -5896 0
-847 -8938 944 0
5840 4328 905 0
3878 203 326 0
4293 -9902 -7892 0
-4923 -4470 9865 0
6496 -5248 -1116 0
-5909 2562 -6657 0
6489 -8923 2708 0
9197 2906 -9514 0
5551 -2506 -5638 0
3417 -3279 -8547 0
-2718 -2356 -288 0
-5618 477 9153 0
3438 -4417 -5729 0
-2885 2713 -4092 0
8894 -5218 -9966 0
-3187 -7659 -4709 0
4464 -2800 37 0
-1100 -8269 9715 0
53 -4041 1610 0
6590 -4079 2477 0
6956 -6679 8894 0
1221 8245 -5088 0
-9761 -8609 9338 0
1889 8155 8564 0
-5184 7286 -8849 0
-7272 5910 6210 0
1407 -9454 8439 0
1730 -286 1748 0
5401 6523 -359 0
-8679 3687 4886 0
-4799 -9013 1194 0
5302 8320 475 0
4827 -6834 -9600 0
-8217 5619 -6073 0
5238 1789 3993 0
5295 9721 7913 0
7005 1110 -6576 0
2091 4661 -6387 0
5378 -5534 -4568 0
-3640 687 -3752 0
-1900 -8132 -6526 0
9488 6470 8481 0
3555 -8358 -212 0
1085 8547 866 0
-8261 1436 2738 0
5707 -9612 -3589 0
-9350 8854 -8815 0
-4522 -1222 9352 0
-3646 -7037 -2081 0
2107 -6890 -2089 0
4025 -7572 7346 0
7394 2439 -5776 0
-6933 2795 -6144 0
-5365 -7463 6775 0
-1087 7772 -9564 0
9385 -7199 -6621 0
-2697 -4936 -6090 0
-4150 -1692 -3627 0
-4023 -240 7621 0
-625 2825 8011 0
2420 4686 5920 0
-702 -8402 -6405 0
7209 1466 8793 0
3591 9945 2771 0
8855 1845 -487 0
-7309 -5418 -4450 0
9421 -9703 6621 0
-7745 2842 -9997 0
2997 -2548 -5464 0
-8689 2999 -7417 0
9857 943 -3523 0
7750 5732 -3774 0
-4469 7890 4109 0
-5173 5651 -3111 0
1742 6128 6386 0
4002 -1757 8825 0
-8390 2507 5337 0
-2473 -6983 2283 0
-8915 9185 -3317 0
-4799 -5025 2893 0
-5963 -8758 1273 0
5954 -4072 -726 0
-866 -7853 -3617 0
2147 7692 -2552 0
-203 -8994 -8533 0
-6646 -2736 3623 0
3757 -2193 1573 0
-6146 9854 -2134 0
-986 -4668 990 0
4426 -4383 -2093 0
-1383 4324 7144 0
-5544 7315 1956 0
-8597 -2865 434 0
807 9517 5207 0
-6609 2411 6134 0
5876 -6994 1535 0
-2076 2329 -9354 0
7962 196 1589 0
-8963 -9473 9914 0
6462 -2421 -4366 0
-3823 -6041 366 0
-285 5771 -5027 0
8882 -4943 -4077 0
-757 3075 5474 0
-153 2531 -52 0
-9864 -9894 -1781 0
7428 -6263 6932 0
-109 -3120 4062 0
-4002 -7585 4405 0
-885 -2227 -3906 0
2608 -5550 7595 0
2753 -3241 9503 0
4986 -5193 -42 0
7166 -3924 -2133 0
-3742 -5359 -8056 0
3428 9461 -8786 0
628 5494 876 0
8455 -1544 8215 0
-4342 1453 -582 0
2168 -4721 239 0
-3542 9923 -7765 0
4954 -9850 3081 0
5453 -650 -9879 0
-4655 7916 -6550 0
3778 1258 -2830 0
2365 -7155 -5163 0
6186 -2478 5379 0
-5583 -4257 -4959 0
-8819 7906 -4407 0
9031 281 -4797 0
-7991 4501 7696 0
6147 6589 -9715 0
-4498 -7415 9817 0
1642 -7682 -2768 0
6067 -6832 9955 0
-9786 1822 -4485 0
-1412 423 -8426 0
5816 -2489 3700 0
7981 6705 -5036 0
5362 -2891 -2589 0
-5874 3364 -1506 0
-795 4996 -3701 0
-6359 2343 5200 0
6472 -8654 -7022 0
-883 8389 -5331 0
-8390 2165 3509 0
8274 3481 4910 0
1239 -3024 -6893 0
-5809 -3434 -2830 0
8016 -9332 9926 0
9961 -3494 8449 0
3259 -2104 1367 0
6905 1146 2294 0
5454 3257 -7433 0
1262 -6277 -6193 0
431 6648 3831 0
9822 -3624 3633 0
-7587 7590 6918 0
-4354 8029 -5019 0
-9266 5696 2518 0
999 -3439 -7621 0
5100 -4154 1622 0
-7073 33 3385 0
-6000 -207 -5132 0
-9835 -735 1787 0
9822 -5174 -4080 0
4067 7047 2592 0
-8479 -9374 -5256 0
3810 -6375 -5870 0
-4460 -9975 8396 0
5116 1368 9822 0
-8285 2622 -6021 0
-5030 9132 1247 0
-229 -9783 -2417 0
-171 -3144 9053 0
6904 910 -1712 0
-4806 5917 -1443 0
-7519 4585 4952 0
4457 1055 9212 0
-6 5380 -4151 0
-6247 -5323 8655 0
914 -6823 -2496 0
-40 -3900 4407 0
-989 4747 654 0
-4366 -7925 -6743 0
1548 3451 5622 0
-8262 6467 -3238 0
5750 6558 -5336 0
3819 5200 151 0
-175 555 6424 0
-7008 -6875 -5252 0
8167 1011 -6517 0
5658 2848 -1482 0
-8942 -118 9796 0
7500 -1604 3825 0
3988 5796 3006 0
-9929 -8606 -8193 0
9964 2661 9396 0
2270 -7663 8112 0
7610 9479 -7552 0
-6896 -3411 -5811 0
-5021 -9410 -131 0
-9507 4089 7799 0
1370 -1744 9056 0
572 4463 -3821 0
6477 -4552 -7941 0
-7734 7445 -4516 0
-4336 -722 5201 0
-2074 7419 -3588 0
5764 7334 -2754 0
-5427 9750 3196 0
6592 -9235 -9222 0
337 -73 -1089 0
7223 -5345 -2705 0
2397 5911 -3282 0
5667 3224 3796 0
-1696 2502 -2256 0
-2927 -2718 -5831 0
2566 2937 -458 0
3419 -5731 2231 0
-8821 5627 -2826 0
-3165 312 -3496 0
-6904 5443 4728 0
6017 1119 -3429 0
5422 2856 -8169 0
9954 3627 9937 0
-4499 -5033 -234 0
113 -5257 -2035 0
-6290 -3822 -4358 0
9619 -9578 -861 0
-7515 -6359 5856 0
5948 -4903 -7270 0
7871 5601 -7421 0
4195 307 3125 0
9466 -2045 -6149 0
5854 7369 -3046 0
-2967 5151 -9604 0
-547 1877 -6694 0
-6330 -5542 -721 0
-2372 1260 -7731 0
-6552 4669 -5570 0
4806 -8452 5577 0
6175 6806 223 0
2864 3977 -981 0
-5852 -2990 -6561 0
-1701 -7971 -7205 0
-9993 -9494 2945 0
-4170 -356 523 0
-304 -8465 -4163 0
8378 -6405 -3170 0
4233 -5976 -8033 0
8824 -6183 3999 0
3057 7614 9183 0
-3106 39 -3355 0
-2088 6932 1368 0
-9581 2115 9570 0
2263 -7963 3239 0
499 4641 2201 0
-8480 5630 9193 0
-5036 -8273 2537 0
-9933 8256 9854 0
7201 -3417 -8714 0
8268 -2926 -7701 0
6187 -7830 -3857 0
-9645 827 4854 0
1030 -1981 -3587 0
3440 -9735 1572 0
3991 7998 -2369 0
6349 6459 -8666 0
5522 4737 2524 0
2747 -3870 -7970 0
-2700 -4343 -4479 0
2271 73 -7595 0
-2547 -5156 5231 0
-659 5360 4211 0
-6311 -3229 -1687 0
2610 3228 4493 0
-7917 779 -819 0
5018 767 8330 0
-8518 8479 1237 0
-4554 -1721 -5928 0
9296 -1560 -5696 0
9656 -62 1087 0
3325 -4399 6316 0
-3579 -5077 -6738 0
-7752 9285 -2719 0
-8223 -5219 2439 0
-1911 8025 -9766 0
2206 -855 3549 0
-7741 6225 1679 0
7402 -7494 1034 0
-7468 6903 -2936 0
1166 -5408 -2551 0
-5800 4435 173 0
-8621 -3288 641 0
-8267 -1139 -6125 0
9006 6371 7486 0
2818 -9161 3596 0
-9872 -8528 1853 0
8969 -2079 2923 0
5776 3054 4605 0
-5301 6027 -4101 0
-2320 -5169 9976 0
-7569 -4606 -7664 0
-3265 3566 9863 0
-2008 -9445 3320 0
5281 1177 -7821 0
5954 -6492 1394 0
3895 2892 -8083 0
1981 -5596 4266 0
4881 380 -2313 0
6498 3258 -1534 0
4207 -4592 8177 0
5160 9041 8564 0
-9487 6237 -8511 0
3807 -2118 4461 0
-293 4956 4608 0
-388 -1275 -5894 0
5456 9936 -3318 0
5777 2336 -9781 0
9111 -7718 5872 0
-2446 -2842 9032 0
1649 1736 -721 0
4988 5198 -5437 0
6905 -8509 -7435 0
7949 -9195 4088 0
-2318 1771 1550 0
-3230 8736 4069 0
5129 2976 6320 0
-7417 -6212 491 0
660 -292 -9003 0
-8503 8487 -1006 0
-1524 -5731 2379 0
7165 -5789 -529 0
318 3814 2288 0
5811 4298 -9650 0
-608 1215 4555 0
-8228 228 9837 0
4101 8924 -910 0
7542 -6459 -9935 0
1983 9393 -4202 0
-7305 -2473 2568 0
-6013 3824 -5971 0
-5106 8332 -5045 0
1664 1209 -245 0
7407 -9801 8625 0
6351 -4683 -5679 0
9999 -2423 2258 0
1263 -7175 3722 0
-5188 -3248 3708 0
5754 -9552 -3751 0
4005 -7990 1072 0
-5689 1954 4721 0
776 8016 6178 0
-1543 9609 2000 0
-6547 -4080 -6513 0
-2264 -7263 2716 0
-2443 8365 7747 0
-3730 -9647 -8558 0
3104 -8490 2499 0
-5936 6588 4711 0
-124 7713 -4521 0
-7091 -9279 8912 0
5636 2555 840 0
-4576 -2365 8242 0
8117 -4775 -6779 0
-8406 -806 3910 0
-2459 -9692 7156 0
-2227 -5999 -5464 0
1797 -6257 7359 0
1260 6418 7737 0
-9055 1727 5907 0
-67 -1761 -6211 0
1052 -1736 9689 0
-2070 1586 -6407 0
-9755 5076 757 0
-7855 -9379 -6814 0
8782 3041 3873 0
9495 6518 -8390 0
727 -2787 1375 0
3956 -923 -1398 0
8790 -364 2974 0
1184 3902 8053 0
8476 7733 -2533 0
3128 -9977 -6916 0
-5889 6518 -4883 0
-9290 4674 -9408 0
-2386 3179 5690 0
7221 -4683 2270 0
-1376 5242 1928 0
9401 -1056 -8844 0
3301 9883 8117 0
-4873 -2237 2554 0
-9975 1965 4481 0
-8249 -3645 8167 0
2675 8 -1610 0
563 -4355 -2714 0
-4849 9236 -8484 0
-8847 1019 -2519 0
-4914 -4368 1804 0
7216 -7188 -331 0
-9636 -8922 8700 0
3011 -7142 896 0
8501 1834 520 0
-8237 -7137 -9391 0
-682 -8955 2126 0
8932 -9883 -2036 0
986 -2419 6843 0
808 -8090 8728 0
-4631 7917 6817 0
6751 -3512 6760 0
6823 -8664 -4420 0
5563 5694 2355 0
5369 -7740 5707 0
3314 -7737 -5656 0
1191 -1471 5101 0
3582 3639 2762 0
-4983 4371 -469 0
-4151 1855 5572 0
-5828 5252 -4873 0
-5724 -8279 453 0
4344 3329 509 0
-6553 225 3335 0
-3173 -4994 5725 0
-4736 3730 -2325 0
4264 3003 4817 0
-7808 7993 -9941 0
-1937 -4202 -1668 0
-4437 8504 -583 0
-1136 -4158 6795 0
-1527 5189 7304 0
-1861 7654 3435 0
8342 -5802 5558 0
377 8820 -8094 0
-1529 1413 -9720 0
2412 -3438 -1571 0
6787 5315 7453 0
-7265 6070 -1298 0
-1679 -9761 9244 0
-3442 5966 -848 0
2160 -9007 -1763 0
-1167 2303 -1021 0
9262 5886 5168 0
4077 -7808 -6878 0
1199 6405 -3195 0
-6130 117 9450 0
509 -4429 -6015 0
-7350 4113 3203 0
4761 -5420 154 0
-5013 -6767 6536 0
-7496 -456 9400 0
-6908 166 1265 0
-817 8879 4607 0
-7494 3862 -9186 0
-7999 -5918 5661 0
-4810 1265 -4169 0
-3774 3383 6498 0
-9193 -3158 241 0
157 -1589 -1332 0
490 -7465 8247 0
-2547 -8060 -449 0
-697 8604 -7392 0
1590 7013 3625 0
-5817 7418 8129 0
5107 -2713 7120 0
-4321 5438 -7186 0
6755 139 4819 0
5541 -5987 -5697 0
7081 1321 4316 0
-8449 -2975 -1815 0
9255 9930 3037 0
2228 -3466 6705 0
5355 -6841 3022 0
-644 8399 2599 0
-207 -4181 -5308 0
6865 -4555 9617 0
-5013 5785 -5070 0
-5402 4816 -6769 0
8201 -7835 4374 0
-4546 9322 -7685 0
9023 -6859 -6763 0
7001 4056 4743 0
-5317 6982 5250 0
-2866 6127 -67 0
-5444 -8991 -1614 0
2418 6326 -2563 0
4852 -9597 7506 0
736 -2558 -3971 0
-7239 -7992 -135 0
-8671 5666 -6450 0
-6797 3831 4067 0
232 6232 2313 0
-2583 842 2034 0
2787 -4502 8664 0
-900 -4510 7939 0
7915 -7462 -7432 0
-2141 -6158 -6897 0
-4560 4251 -4475 0
912 -6277 5505 0
1387 5039 -1708 0
3324 7488 8829 0
-2130 -9195 -5877 0
-9708 -7192 9055 0
8959 -8714 6499 0
928 4222 -1556 0
7941 1278 -1104 0
-4557 -7323 2869 0
-1504 -5135 -1226 0
8863 -4555 8707 0
3272 9222 9098 0
-7767 4158 -2531 0
-8946 -6660 -7878 0
-4850 -718 1100 0
5185 2550 3766 0
2486 9077 8890 0
2964 -8798 5027 0
6796 3082 8982 0
-3057 -3962 -2898 0
7112 -9016 3714 0
-5707 6277 -3184 0
7628 -3509 -1722 0
6285 5833 -2041 0
-2194 -4614 9427 0
-8284 -2784 1956 0
-9385 -6306 1461 0
4543 7736 -1651 0
8449 325 -3915 0
-4238 6348 -9878 0
7785 -6865 -7308 0
7598 -2141 5453 0
592 399 -5485 0
-2438 8378 8889 0
-3032 -392 6069 0
5823 5273 175 0
-5664 1002 -4295 0
3834 -2860 8307 0
4674 -4023 -9995 0
-1437 -8086 -562 0
-5166 -7276 -6000 0
3592 7126 8173 0
1651 -3809 6549 0
-4652 5468 394 0
6507 4690 -743 0
-7744 3082 6704 0
-4898 2328 9087 0
-5885 -7327 -3552 0
-7582 -4784 -5354 0
-6609 1028 -8518 0
8561 -6209 4378 0
9191 1924 2190 0
-1216 2223 331 0
-1915 -3633 -4787 0
-465 2825 7210 0
-8627 1793 7369 0
-103 -5993 3757 0
-5900 -2226 -9366 0
4528 -7379 1509 0
-4 -699 4900 0
3658 5288 -3943 0
-3568 9002 -7346 0
4234 4111 -3051 0
931 -4624 -7076 0
-9226 8215 327 0
8036 -1959 -9798 0
9720 7248 -7708 0
-2819 -7519 -8500 0
-2576 2430 9650 0
-9056 1550 -9309 0
9568 9819 7307 0
-3792 -9899 -2505 0
-9189 -2607 -9637 0
1956 -3774 7324 0
-7644 -3111 -8337 0
2510 4867 -3665 0
8277 7610 -6749 0
-5596 6636 5736 0
8244 -1354 -1918 0
7429 -5678 71 0
-5714 -6814 7206 0
988 2110 -8555 0
1904 7046 5659 0
-4769 -2922 -4524 0
-1277 -4768 -764 0
-632 -2303 -7795 0
1148 -6622 -9115 0
8250 1695 4102 0
5899 4571 5174 0
-4704 -1762 -1327 0
-4975 -3883 1805 0
-4649 9136 5023 0
9005 -6689 5675 0
7265 6042 97 0
9826 -9462 -4144 0
-6135 9650 -7551 0
-5643 2459 8708 0
-6239 -6906 439 0
2079 217 -2082 0
5701 -7860 -8866 0
9661 -2044 9016 0
9175 -3297 -1065 0
-7402 -8419 1799 0
-5095 8245 6410 0
-8278 7443 -6028 0
-5336 -4015 7846 0
-8038 -4390 -4607 0
-8823 9483 4513 0
5886 -4189 -4064 0
-9373 7237 -4194 0
-4379 7073 3066 0
2439 223 -1312 0
-5419 -6308 -5568 0
-6726 7095 1718 0
-8333 3005 4921 0
-5343 1171 -589 0
5184 6958 2837 0
-7514 -4963 -776 0
1767 458 6804 0
9228 2329 193 0
9474 -9657 -3603 0
-1050 -335 -4486 0
3959 3088 2056 0
4576 9243 8394 0
3714 -5563 -5383 0
-6174 4229 73 0
-7258 6165 -9041 0
-3896 -8066 7997 0
-4722 -4467 3949 0
5739 -7987 2457 0
-8551 1217 7420 0
7758 -9682 3703 0
1533 2030 -136 0
5069 7707 5580 0
-6706 3637 -1762 0
-5098 -2197 -8486 0
1164 -2098 9108 0
-1513 -7301 -1090 0
-2063 8043 7201 0
-9115 9200 7109 0
-1921 6509 2339 0
5162 -5310 2158 0
-2219 7577 5796 0
-9497 -1661 5268 0
5907 8631 8526 0
-9414 -2446 1428 0
-9803 -3699 -8538 0
8223 1259 7193 0
6969 5773 -4100 0
-9510 -4965 -3625 0
1684 -7884 5899 0
-6088 9161 -9798 0
4590 1162 1278 0
5345 -2742 844 0
-2933 7621 7293 0
-6096 3716 114 0
-3651 -464 216 0
2003 -2510 -4768 0
3315 -9645 -7396 0
-8601 -9557 -5092 0
2144 4316 -2947 0
-5603 -553 -7000 0
-798 3245 1680 0
-1122 2439 -5084 0
-3288 5167 9133 0
3465 3593 5549 0
1293 -1527 8904 0
-8841 -2361 8359 0
5843 1069 7793 0
2254 2294 3750 0
567 -2851 5491 0
1756 6954 8193 0
4195 5357 -7096 0
-2930 1338 4630 0
-2009 5202 4619 0
-8242 8776 -5412 0
-8368 5188 6218 0
-8275 -5922 -1243 0
-5996 6903 7292 0
-4548 3948 -2837 0
-1164 -1039 3597 0
-5070 8571 -1742 0
4122 5546 -5319 0
3155 1355 -1643 0
1039 -2803 -1694 0
5438 5914 7435 0
7011 2214 -1068 0
4934 -6210 -7857 0
-401 3619 -6032 0
-8490 4531 4707 0
-2048 226 9177 0
-6470 8294 141 0
-5968 -5760 2028 0
-1838 -3360 1852 0
-1538 3838 3100 0
-6773 6209 9355 0
2407 -4152 4426 0
8181 -2439 -5244 0
-3699 7934 4332 0
9878 7021 -4576 0
-1413 -3561 -1791 0
-8436 -4302 9181 0
7830 322 3884 0
1253 -9347 -9775 0
-9531 5637 -8255 0
622 -609 -9505 0
2948 -1377 -3142 0
5798 5613 -1395 0
2315 -7708 -7564 0
8963 -992 -91 0
1449 181 -4396 0
7069 -6422 -9339 0
-9421 3621 -1911 0
-602 -8855 -9611 0
-1102 1497 -9734 0
-993 -5467 4287 0
-2402 -6336 7202 0
-4929 7895 4749 0
341 -7776 4442 0
1789 -493 -8515 0
7136 -1728 -4282 0
600 354 -4865 0
8213 2306 -8487 0
5412 -2958 -1331 0
985 718 -5134 0
-8109 -4367 -9955 0
-3028 -3931 -7561 0
-6932 -3999 6058 0
6810 -3725 -7556 0
5964 -898 -4257 0
-5184 -838 -8338 0
6525 -5148 -2840 0
9305 4854 5686 0
5590 -8245 -9500 0
-850 -8350 -5376 0
-2619 3488 -3470 0
5556 -2232 -2726 0
-2494 -4679 -5997 0
6595 1148 593 0
-1538 -1117 4829 0
-558 -4780 -525 0
4567 -8445 -5257 0
-127 8480 3420 0
-557 5891 -7494 0
-1468 -3226 9258 0
1962 -6385 6713 0
-9710 -1423 8355 0
2553 -3531 4308 0
-2151 423 -6562 0
5203 9656 -8269 0
8041 -2522 -9920 0
6522 -5476 7857 0
-6432 6013 2788 0
5510 3332 -1064 0
-4553 8595 3260 0
-3734 734 4812 0
-6734 -8610 296 0
-624 -1439 -2472 0
7676 -16 -7660 0
1812 7696 4144 0
-1182 531 -1982 0
-3329 -482 -8503 0
-2363 3078 5688 0
9512 6516 1952 0
-2576 -5190 -9887 0
5165 2529 -7869 0
-5659 8252 8922 0
-9532 -2063 -7936 0
-2880 -2166 -8338 0
-9816 -1122 2258 0
-8139 4738 6575 0
8071 -5291 4862 0
853 -2459 5976 0
858 -5224 -3375 0
3028 -8320 -9497 0
6141 -2285 -3949 0
1550 833 4606 0
8400 -7819 -6892 0
-8514 -3486 9438 0
1654 7542 2267 0
-6431 -8812 -2848 0
-3295 6752 6683 0
-7644 -5393 4794 0
5131 8328 -5223 0
-4447 -7097 -5532 0
1055 5099 -1884 0
6428 -8475 -2749 0
7573 -9913 5951 0
-6014 8961 -2996 0
-1662 -9575 -3370 0
-2368 -5454 -3061 0
9380 6198 -3365 0
5535 5678 7988 0
6114 -5 9402 0
1756 -534 3387 0
5510 1628 -9303 0
-4239 8655 9803 0
4746 -3604 -5372 0
-8059 6839 -4966 0
-9940 -7320 -2290 0
-6095 5339 1990 0
7661 -2317 9400 0
1653 4388 3250 0
-8286 -5111 -9021 0
6166 -6982 -7810 0
-7463 4117 -7706 0
-1836 9681 -8106 0
-9356 -1333 -3181 0
4730 6721 2192 0
-3471 -7351 7450 0
-9495 -2455 -2262 0
5536 -4716 1557 0
7987 -1014 -9926 0
-4324 -5497 6624 0
5729 2719 6128 0
2904 -4884 253 0
3877 9155 6120 0
-8802 6786 -2844 0
9631 -6409 -2389 0
475 7110 -3931 0
-1549 751 2814 0
-4898 -5051 -6385 0
229 -8644 -2634 0
-9766 3890 5235 0
843 -9046 -5601 0
2776 4553 -3507 0
-3467 1951 -8111 0
1076 8446 392 0
-6588 -8098 -6423 0
-6790 -2850 -8024 0
2018 -55 -4764 0
1780 -4790 2450 0
-9689 -6803 -8336 0
3348 -7485 -4020 0
-9316 -2179 -7929 0
-9718 -6822 -8899 0
8698 -6688 9409 0
4066 2530 -5748 0
-8360 9127 -9873 0
-567 -8587 -5804 0
9677 -1106 9580 0
5467 -4343 1729 0
-116 1359 -9995 0
5860 8759 8924 0
5540 2045 -7786 0
314 -9677 589 0
-5048 -6143 4976 0
8903 6949 -4641 0
3043 9743 -3660 0
-869 777 -7546 0
2413 5418 5127 0
1888 1438 9585 0
7269 -2892 -6562 0
5409 -5391 -4784 0
-5054 -9736 2889 0
4109 7290 339 0
900 6126 5554 0
-1497 -5948 -4886 0
6988 -53 -7311 0
-5587 -6545 4558 0
5722 1748 -7102 0
-279 3483 7674 0
1287 -3740 -8876 0
-319 -2948 -7609 0
3195 -654 9110 0
-5350 -6002 5551 0
7771 1488 2637 0
-7956 6464 5085 0
9041 -9170 -5255 0
-7037 1779 4635 0
-2541 2274 -4139 0
6183 1490 -996 0
147 7583 -8951 0
-1989 6332 -7063 0
50 3720 -3719 0
-2949 -421 -3994 0
106 567 -3438 0
76 1977 -622 0
-2540 -3184 8750 0
-2175 4380 -7815 0
-930 6194 7846 0
7553 7961 -5753 0
1246 -258 559 0
4853 -7424 3487 0
4860 -7761 -6239 0
8069 -4022 443 0
1765 5906 2762 0
-3450 -2706 -2887 0
1819 9563 8853 0
-4554 -8808 -878 0
-2370 -4062 -3142 0
-1841 -1307 1315 0
4728 7034 -1410 0
-2090 -7345 8028 0
-7282 -7216 -9122 0
5642 -4575 7713 0
3391 6135 -1429 0
-7672 -3966 -7288 0
-4413 -4878 -656 0
1377 1459 -1326 0
9347 -2411 622 0
8223 -8336 7304 0
7518 -7974 9745 0
-3656 3530 5573 0
-7540 6966 -2296 0
697 -214 -4349 0
3466 8067 -1339 0
4966 4994 -7880 0
5151 9166 105 0
33 -3235 9026 0
6997 3007 6993 0
5276 -9403 -3170 0
-3849 -351 -7359 0
-5458 5495 150 0
-5056 -412 7142 0
-7064 4607 2195 0
-4748 7715 -180 0
-3089 1768 1752 0
-3750 -8328 -4013 0
8560 3409 -7117 0
-2065 6670 1616 0
-4402 -4558 2060 0
1309 1501 9293 0
-7026 7859 7427 0
-8581 -4925 1376 0
-1165 5804 8469 0
2509 8790 -2884 0
9888 -4945 9429 0
-1886 635 2093 0
9721 -8396 -4959 0
5251 -576 4125 0
7560 -7016 -5535 0
-4431 -4593 1296 0
1276 -3665 -2482 0
-5603 3721 -8009 0
9054 7255 7120 0
1628 -9039 3610 0
-5638 1767 -737 0
-5677 -8204 3016 0
-1909 -9246 632 0
-477 6127 148 0
8837 517 8902 0
1258 -2769 528 0
342 -1467 -8126 0
8198 -8729 -5774 0
-8760 1768 -1438 0
3981 -5203 4095 0
-5013 -2269 5556 0
-806 5628 -4676 0
5771 -3671 -8478 0
3242 -9509 5426 0
1312 -9555 6592 0
-8914 2446 711 0
-5668 2856 6637 0
-875 -1378 8087 0
-1367 4423 -5962 0
6566 -9459 221 0
6128 5721 3365 0
-7181 -7496 8942 0
4414 5034 -6604 0
1095 -1399 -9604 0
-1724 -3699 -9920 0
1592 -67 -4197 0
-8875 419 -2848 0
9598 1449 4089 0
4238 -1895 -3607 0
-4201 -4682 -7378 0
5902 -9798 -9592 0
1909 -3140 8732 0
-8734 5270 6705 0
8308 -2622 9783 0
7943 8114 -5800 0
5988 -5533 4739 0
5700 4307 -9580 0
-8637 -7170 5674 0
-5965 5804 -8082 0
-9415 -7170 -4871 0
3790 -1782 -9698 0
3933 -9957 7339 0
2445 7220 -4205 0
9128 -2542 2993 0
-9888 6541 6449 0
5089 8460 7624 0
7701 9939 5375 0
5151 6344 -484 0
-4354 4030 -6992 0
4057 3203 -6785 0
5011 8916 2502 0
577 -4339 -7602 0
1649 3222 1716 0
3072 4060 9505 0
-7753 -1127 -8333 0
6647 4472 -5220 0
521 -948 4604 0
3719 -8503 9624 0
6685 -5261 -7524 0
7821 -7308 2744 0
-3447 -8299 8562 0
9485 8006 -2622 0
-3246 254 -2635 0
7607 -6350 5359 0
1533 -9848 -1362 0
-5124 2907 -819 0
-735 -2765 -4781 0
-5817 4592 -5777 0
5412 -5649 9737 0
803 6036 7837 0
9345 6486 4241 0
3825 -388 -6303 0
-7892 1124 -7211 0
3006 3877 7226 0
9857 9598 -3104 0
3082 4713 -4140 0
-6597 -5403 -2068 0
5763 3800 -9718 0
-2395 -7048 -2523 0
7395 -3742 5286 0
-2555 -4015 -6959 0
-6957 8029 4304 0
6565 1141 7531 0
84 -1795 -2853 0
-1073 1123 9329 0
9655 9375 -519 0
1070 -8464 1063 0
2202 -9889 -146 0
7291 -5420 -9747 0
-2643 -5288 -6216 0
-4976 -633 -9577 0
-6998 -9225 -8173 0
-5360 -7725 -2475 0
-7339 9006 -5432 0
2467 3058 -8437 0
9632 -5131 6280 0
-9092 1309 -9975 0
-8445 1896 -872 0
-1615 9075 3065 0
6387 8269 5682 0
577 6614 -7879 0
-9257 -8723 1773 0
751 -824 -8103 0
-5835 1877 3832 0
2955 2721 1122 0
-7903 9176 373 0
-8701 -2025 630 0
3790 1974 1778 0
-5052 -7051 650 0
-7472 9616 -3756 0
9243 -9263 -5827 0
-2278 6412 695 0
5205 -8949 -723 0
-8683 1008 -5688 0
-9330 9807 -8205 0
2336 -288 -5840 0
6049 -5046 7586 0
2901 5049 -8735 0
-6158 -9061 -6453 0
7807 -154 -5116 0
-5854 -6959 -399 0
544 1704 -1332 0
-707 -1020 3067 0
1475 7185 9385 0
2835 -1931 9302 0
-6177 6967 1712 0
8307 -4058 -111 0
-3633 -5624 8364 0
1045 7326 -873 0
7628 -3127 -9272 0
-4981 -2994 -8010 0
-8649 589 -6207 0
7489 5901 -1163 0
-7469 -4431 92 0
9606 1306 5948 0
5666 -6206 1685 0
-2425 -7411 -335 0
4504 -5003 -3679 0
-8760 -9324 -6644 0
5888 -8624 2885 0
-2906 705 -7918 0
-1414 4658 -2807 0
8898 1564 -1244 0
-966 3798 -9283 0
-9223 7158 6434 0
-7841 -9128 8542 0
7880 9325 9856 0
-2147 -1617 -3628 0
1541 -7746 -3363 0
3244 677 -4958 0
2135 3173 8773 0
-4275 6643 -3759 0
-995 3904 87 0
-2553 7558 1810 0
-3202 2448 7909 0
9841 9874 -9994 0
5551 1140 566 0
3243 -199 8851 0
-147 9701 4043 0
-2555 -8125 -5458 0
-4108 -2396 -8936 0
9979 2454 -7183 0
8806 -856 986 0
-9824 -5961 -3937 0
-6121 3045 7701 0
3138 5850 3304 0
-9186 212 5390 0
6246 -740 -3387 0
-1081 -101 -9046 0
7440 -3284 -2903 0
-4263 7776 -661 0
-8655 4785 7369 0
5226 -9262 6133 0
7260 -183 -9043 0
-4813 -6132 -5504 0
5173 -7573 4425 0
8349 -1137 261 0
-2985 9599 -9088 0
-5612 -7046 2843 0
7803 8091 -7805 0
-2012 -1898 5166 0
7902 -6157 -1216 0
-4465 5234 -1590 0
7675 -392 -6369 0
5768 9935 3986 0
-2806 6275 7010 0
-2235 -163 -3696 0
1745 3930 4304 0
7096 9526 -6962 0
4589 4415 8021 0
6421 1010 -9525 0
2233 9639 -7403 0
3413 -2766 -4670 0
-2534 -5779 5751 0
-8573 -6861 7239 0
2552 5458 -1811 0
8850 -3242 4025 0
2268 -8419 6495 0
8436 -253 -4485 0
-3769 6013 -2144 0
-3381 3275 9129 0
-9124 9993 5 0
3938 2796 -9892 0
9105 6949 -8179 0
-4839 -890 1929 0
-4293 -7117 -2529 0
6920 -1470 -308 0
-8683 -9867 2318 0
3530 -8043 4890 0
7374 -5094 8311 0
-3662 7089 5163 0
-6989 8225 2142 0
9128 -8287 -4266 0
-501 5992 1194 0
1672 -2194 2787 0
4411 -8777 -5437 0
4263 4667 1891 0
341 7356 6453 0
-4660 5875 3810 0
7605 -3962 8825 0
-9947 1787 7132 0
8216 9871 -9512 0
3469 -9082 -7577 0
-6644 -9973 6727 0
8965 -5158 2187 0
3594 -7827 -2044 0
8000 3292 2719 0
6644 3962 4773 0
-9860 6546 -110 0
-6361 8072 1529 0
-8636 4857 9202 0
1169 2594 -9703 0
-3298 7222 7158 0
-751 6733 7731 0
3151 -374 8149 0
4756 -1134 3545 0
9375 -4777 -7069 0
9704 3944 1119 0
150 3517 -8864 0
4572 -3143 2589 0
805 -7588 4982 0
-8590 -3945 1264 0
5858 2537 -1525 0
-1150 -5245 8499 0
5663 8737 -6101 0
-814 4151 6464 0
7105 1254 -9093 0
-6549 -9359 5558 0
6619 169 -9697 0
-4280 -5978 3922 0
2552 -551 -2090 0
-3584 -6916 8377 0
-3919 -66 -4019 0
-8900 -6758 7000 0
7866 1515 7839 0
-5437 -4068 4111 0
3633 5731 -6627 0
-8542 -6851 -9988 0
-3097 5964 2951 0
-6357 8456 3980 0
1288 4846 -5382 0
6988 8462 -4174 0
7177 1075 3790 0
6999 -9573 -2559 0
153 3002 -962 0
-4756 -7613 2175 0
-5780 7030 893 0
-1056 8580 5059 0
6755 2795 8137 0
3945 2314 -7868 0
-78 -2326 700 0
-5861 -6354 -4875 0
-5935 -7399 -6258 0
-9310 2069 -4536 0
5437 7728 -3184 0
3651 -5280 -6845 0
5728 3637 9738 0
-2002 4890 -5025 0
-3705 -7195 2441 0
1195 2838 6551 0
3776 -9656 -1873 0
-972 8320 6870 0
-9513 3179 -3559 0
-9073 5731 -3656 0
-3232 5514 9385 0
2202 -2701 -6575 0
9564 7943 9491 0
-5398 1236 4574 0
-1808 -5256 -1106 0
4317 -1469 4707 0
-6282 -6729 -3933 0
8548 -9355 8913 0
-4394 -2918 1372 0
-1202 5290 -5908 0
7103 -7329 -9473 0
-9597 -8000 -3811 0
4571 -7427 1722 0
3337 -7230 -9669 0
2558 5994 2303 0
2747 4042 -6278 0
6641 -8973 8534 0
2390 -1642 8958 0
-6025 2928 8721 0
-7320 -9464 4944 0
9172 7177 1954 0
-788 4590 9262 0
-557 -1094 6978 0
-2218 8197 5781 0
5770 -3482 7691 0
7875 189 4721 0
-4637 -7040 1383 0
1961 9564 8073 0
5454 9487 4629 0
4212 8044 -6576 0
2798 3171 -2509 0
9984 -583 5349 0
-2509 2155 -4525 0
-5769 1003 701 0
619 6022 6272 0
5802 -7119 -4230 0
-9510 1198 542 0
-1791 -1866 7106 0
-6713 7281 -7230 0
-494 -5042 145 0
-7508 2082 -686 0
-2554 5436 5517 0
-1150 6486 7001 0
-6749 -953 -250 0
-2722 -8592 -5154 0
-425 -2058 2763 0
-2747 -2989 9303 0
6385 -1590 860 0
-7019 -3715 7046 0
-1910 9849 1542 0
-5494 3619 6725 0
3006 -8631 2140 0
4644 -8769 3806 0
-199 -2520 -1497 0
4562 291 825 0
8750 8510 4828 0
-8949 -5073 2182 0
3544 553 -34 0
7722 8062 -1253 0
3402 6558 -3875 0
-6537 2920 5325 0
3801 -2076 -3375 0
-9560 9109 3756 0
2394 -104 6705 0
9323 -446 -1242 0
4694 -3788 -5346 0
1312 -8812 4012 0
7036 -6798 8060 0
999 -8503 -4680 0
-1078 5820 5326 0
6366 -8901 3735 0
-5937 9519 -1856 0
1541 -2936 2764 0
2909 6563 -7232 0
-1217 7377 2446 0
-4012 1467 -2754 0
-1802 -7887 3609 0
2926 -2189 -6449 0
-372 -8369 -6979 0
-4549 2251 3113 0
-1341 -1499 -6505 0
-1428 -7573 -793 0
6889 223 -4298 0
3607 -6229 6846 0
-9610 5171 -4372 0
9907 -9768 2521 0
-9531 -1234 -5952 0
4619 -3623 9100 0
-1340 -9339 -4040 0
79 -9150 1970 0
8520 -422 8203 0
-3390 -2517 2824 0
2548 2555 1664 0
-5067 1172 4527 0
-3331 -7665 -4783 0
2608 -6310 3298 0
5637 9136 -2929 0
4380 1536 -1414 0
-6318 -3907 6142 0
1403 593 -5376 0
-2516 -3165 7570 0
-570 2476 5094 0
-7983 5463 6992 0
-4776 -3560 2676 0
6502 7092 4679 0
-9416 -9155 4550 0
8733 -441 -8504 0
-4579 410 3976 0
8475 2547 372 0
-3681 7365 3712 0
-5143 -8495 -5718 0
-642 -8080 -4058 0
-6906 -9721 -9379 0
5396 -7796 -9473 0
8094 -8670 6332 0
-6654 -5125 9814 0
-85 -4400 -9358 0
6911 -291 1114 0
5521 -4662 9955 0
-6194 1204 -9261 0
-2060 1187 -319 0
-7451 -1001 -3150 0
981 8951 -5251 0
7655 -4459 -3974 0
-4931 -4590 -5667 0
-2656 2949 -176 0
-1993 -6529 341 0
50 441 -9276 0
4740 5506 9565 0
-2422 434 -1242 0
-9517 1101 2254 0
9418 5712 -9754 0
2376 -4221 -6457 0
-5874 6411 9024 0
-1521 -2319 -1558 0
-768 4683 -8258 0
-2479 -3550 9596 0
5003 -6807 3296 0
5129 -2294 3429 0
-6639 7141 -1813 0
-2115 -8158 9954 0
-6676 -1021 1621 0
-9290 -3633 9391 0
4174 2945 -7080 0
746 1213 8190 0
-8157 7800 4176 0
-659 9851 1892 0
-9817 2477 700 0
8862 8962 5496 0
4962 -673 -8913 0
2916 5152 -5368 0
2116 2801 2393 0
-8689 -5534 -4577 0
-795 -8556 1536 0
3095 1264 173 0
-2810 -1142 -1840 0
2801 -2958 -8781 0
6505 -6726 -8404 0
-46 -7081 8421 0
7203 8742 -4307 0
-6628 -2199 5963 0
5008 -1637 -4373 0
-3280 -6715 7804 0
9168 90 1334 0
9174 1352 1420 0
4712 1344 -7622 0
-392 2464 -3016 0
-2195 -5136 664 0
7197 -2881 -1848 0
-8189 3058 -2342 0
6229 -9541 6202 0
-6521 3920 3402 0
-109 450 -9496 0
6404 -7847 -196 0
3096 2830 -5305 0
3599 4246 -504 0
4321 2862 3890 0
-8953 -7517 -3864 0
-8164 9230 -9540 0
1323 3144 -8983 0
2087 -9645 -626 0
954 7081 3776 0
457 -1055 7556 0
6864 1628 -6145 0
-7957 9357 -7058 0
3733 -8531 -6022 0
-9402 2496 3384 0
6444 -3788 4588 0
998 -3339 2367 0
4770 -3628 9226 0
2643 -6300 7051 0
-8368 -6613 -7878 0
4329 -4800 7071 0
-7068 7977 -1124 0
-2480 -9060 1561 0
1277 -9113 1641 0
7437 -1091 6203 0
5639 4859 -8891 0
5162 6638 3327 0
-7661 -793 -2546 0
-1276 1663 -6434 0
-8254 7470 4180 0
9858 3929 -9215 0
-6593 1875 -8258 0
-6785 1735 -5641 0
3617 8173 376 0
569 4467 -2225 0
-9811 -8852 -6139 0
-6229 6809 9734 0
-4691 -7224 -1041 0
-6372 -5789 7814 0
2036 2439 6027 0
5557 6758 1203 0
1356 593 289 0
1563 -6665 -1640 0
2074 -8436 6252 0
744 -7023 8272 0
5992 -255 2895 0
824 3546 -7126 0
6695 -1886 6517 0
9524 -6939 -7194 0
-3633 9317 -8388 0
-1141 7022 -878 0
-7960 726 1854 0
2709 -1033 84 0
-7226 -174 8866 0
9610 -9186 -3150 0
-9239 5014 6471 0
-7133 -303 -4871 0
-1588 -1103 5474 0
-3270 -5207 -5965 0
45 6467 -2009 0
-9896 1324 3988 0
8465 3900 6350 0
-2961 -7483 9618 0
1742 7094 6687 0
5702 3876 5604 0
8333 3755 -3401 0
684 9102 9676 0
-1642 -3467 -8911 0
6374 -2201 2370 0
7468 5681 9539 0
-1215 7870 1078 0
4903 -4451 -4983 0
337 -7065 -4285 0
6074 -3105 607 0
-5796 7142 -3440 0
9122 -8325 -8924 0
-311 2405 -6032 0
-8292 -4379 -4549 0
1898 6553 -3835 0
-6146 -6776 5563 0
-7111 2614 -1386 0
112 -3905 3889 0
-9246 -3163 -9165 0
8896 -623 9227 0
9395 -3369 -8197 0
-8122 -1161 7590 0
-3262 -8935 2789 0
-7478 7171 -9239 0
-6273 -3682 5580 0
-7586 3198 1582 0
1538 -4936 -8018 0
-9016 -9890 1988 0
630 8401 -5825 0
-2554 -4 -6865 0
-426 -2655 8232 0
-5914 -5821 -2805 0
3403 6064 2391 0
2674 -1571 -2124 0
-9620 6924 -6735 0
-6064 -7934 -2143 0
3416 -1370 -9006 0
-9222 9883 7976 0
-4357 383 -9149 0
-3949 7073 -4984 0
-5504 -1901 3261 0
-4684 -3980 -1627 0
-3095 -3340 7989 0
-6401 -9960 -1400 0
4186 -6928 8414 0
-2091 -1429 -7785 0
8146 8652 3531 0
-1106 -564 -1199 0
-1066 -8791 6005 0
865 -911 178 0
5677 2459 -2362 0
-2007 6629 -9810 0
-5238 -948 -8276 0
6272 3029 -1600 0
-7085 8345 -1214 0
7679 -4693 -6490 0
-9209 -7966 1971 0
2557 -97 5234 0
-9204 849 7978 0
-5536 4403 -3311 0
-2728 -6756 7349 0
3545 -7035 -240 0
-769 -6192 -9705 0
6274 -8694 222 0
-326 -2591 3320 0
3491 -2619 -336 0
-6393 -7920 9934 0
-2300 -3932 -7009 0
3967 -9465 3905 0
540 2783 -8329 0
-4570 9448 -711 0
-6959 -5611 -1303 0
-2483 9791 -7939 0
-7208 -450 4742 0
-8688 8641 8538 0
8709 -8473 -5102 0
-8545 6396 2415 0
-9665 6167 -9866 0
-1592 -8394 -131 0
-7340 -5509 -426 0
4782 6790 -7006 0
-5202 477 -7526 0
3448 -7342 -1239 0
1120 -7744 -1489 0
-4129 3250 1344 0
-1761 -2808 -9480 0
-849 6224 -4886 0
-4075 7533 -3869 0
-9332 -8955 -9783 0
-2877 -8274 8565 0
8139 4769 7988 0
7997 3312 5226 0
-9941 6762 3522 0
-5959 6521 7933 0
-9329 754 -96 0
6378 1552 -2741 0
-6368 5003 7920 0
-2973 -1934 9262 0
8054 -1112 -3658 0
-9073 9411 -8225 0
1989 -521 -9006 0
7928 -772 -3971 0
8709 -8338 -1267 0
-541 -5621 -1081 0
7800 -6727 7481 0
3889 -6881 -2108 0
9816 -4516 -5284 0
9135 -9560 584 0
860 -565 -598 0
1612 925 6399 0
6690 -1981 4797 0
6030 7724 2342 0
-3974 -6541 5210 0
9861 3717 -1641 0
6460 8931 -8595 0
-8709 -8058 1294 0
-5894 -5034 9685 0
-9199 -1032 2586 0
-2291 8737 1983 0
-8889 -3630 5987 0
1500 8539 9622 0
3787 2280 4323 0
160 -9602 -9750 0
-3495 6771 866 0
7521 -3371 -3688 0
-8348 4999 -5237 0
3559 2458 4969 0
-7077 8151 -162 0
-3110 6269 -1440 0
-8617 7280 1615 0
3212 1631 5126 0
1676 9314 -8467 0
-4931 -9119 6451 0
-4536 -9775 -4223 0
-4970 -6894 -1657 0
-3178 -2835 -6697 0
6703 5948 -468 0
3082 2983 5408 0
7795 9710 -4242 0
7558 5805 1580 0
-5456 -8823 3204 0
5834 -8965 5289 0
6167 -661 -1867 0
-6227 -2549 -9913 0
-3079 7773 -6923 0
3613 -5530 6989 0
-1375 5152 -5905 0
-7442 9790 470 0
-9261 -3471 -7145 0
8787 3778 -6794 0
6665 3060 7879 0
-1088 -5533 -1784 0
4671 -7764 2170 0
-66 -6687 -8403 0
3427 9908 7891 0
7177 -4699 -2465 0
293 1813 4580 0
-7035 -7923 -4605 0
5393 6344 -1269 0
-3596 4070 -5977 0
5010 6494 5406 0
-815 -4127 -4163 0
9522 -1205 4706 0
-6427 -6156 8853 0
9557 2677 -1179 0
-8917 9030 458 0
7951 -647 1403 0
-5427 -8704 2989 0
-4045 -3603 1693 0
2279 3727 1932 0
-3339 -4560 -7374 0
-8056 5442 1858 0
9138 4474 -3812 0
-9643 -5177 8816 0
-9322 8463 5168 0
1726 -7545 1478 0
9858 8597 -2384 0
2861 3550 6720 0
5903 -100 9659 0
-7461 5391 7785 0
2260 948 4722 0
-9971 -9101 -4643 0
4684 3170 -4919 0
-218 -8201 -7332 0
6173 2903 -568 0
-9197 -6121 -8402 0
-6056 -8538 -182 0
1823 -3133 -3334 0
3259 6754 7129 0
4060 7745 4857 0
4571 4402 -7354 0
711 4073 6692 0
-4671 2131 -4112 0
-8502 -3604 4774 0
-8767 6637 -3042 0
-8225 9192 9775 0
-6061 -5746 -8 0
1253 -6637 1036 0
4259 7561 3830 0
3486 -5734 7921 0
-913 -7778 2052 0
5128 -9817 -2187 0
4757 -9067 -1806 0
3398 -5878 -9536 0
-9055 -2410 1536 0
-1040 9143 -1131 0
-8479 -9213 1145 0
3655 -1563 -6472 0
-9270 -9730 5544 0
6759 4750 1566 0
-6190 -7952 -2724 0
-801 -193 9242 0
9149 -7555 -9319 0
-5847 2231 1117 0
-7032 2018 6207 0
4847 -3465 3487 0
3110 -7126 5975 0
-9515 9272 6116 0
8248 -2267 3315 0
3683 -4438 3580 0
855 -5206 -2596 0
-4551 4748 -3025 0
6740 -6106 -1539 0
-7635 7589 -6818 0
4287 8925 -3809 0
3855 8619 3028 0
5195 1727 -1921 0
5292 -7777 1162 0
1196 -2635 -9917 0
3685 306 -3249 0
1644 -4795 379 0
-5061 -9647 -9203 0
4799 -4812 8587 0
-4509 5786 8408 0
-2523 -7905 -5406 0
-5099 8761 -9833 0
3114 -3619 9770 0
5663 2809 9112 0
9410 -6762 2817 0
600 7678 -6540 0
8118 2223 -564 0
-6335 5520 -1458 0
5630 -5663 -3668 0
2288 2524 4268 0
-8941 -1267 -3176 0
7750 173 -5345 0
4396 -6958 4539 0
-3158 2936 4883 0
8386 -6440 1459 0
1557 -4061 -3757 0
615 9776 -525 0
9996 7586 8275 0
-3376 -1533 7780 0
2281 6381 5751 0
-5539 -1350 -7033 0
1437 3966 8079 0
-3661 8929 3824 0
-7838 8562 -5231 0
-9459 8375 113 0
129 -8087 952 0
3895 -8188 -8066 0
5751 -1545 9325 0
-7648 -5372 2857 0
6987 -6902 7093 0
-8544 -8851 4097 0
-1730 8518 -576 0
-7327 -1255 -9878 0
2432 4529 -5147 0
7031 1374 3826 0
5913 3864 3220 0
-2277 6078 9511 0
8903 -779 9559 0
324 5698 -1676 0
5054 3738 6616 0
-1672 -7520 -8351 0
-6707 3931 -564 0
1522 3458 -5645 0
7658 321 -6454 0
1915 9847 7800 0
-1284 -1887 8717 0
-1427 9112 2295 0
-7786 6909 -406 0
-6906 2384 -4568 0
-3707 6570 -8637 0
3649 2327 3329 0
-9719 -9395 6574 0
-6644 -9583 1619 0
-7469 -3083 7319 0
629 -4939 3730 0
-6977 7343 -4382 0
8837 4864 2060 0
-8339 2516 -3107 0
-3136 8164 4052 0
2731 481 -1230 0
-9340 -8575 -8060 0
-4355 8836 7543 0
-2990 -4915 -771 0
-6214 6413 -7689 0
-5261 -6034 1464 0
-549 8282 -9409 0
-2441 6046 -2485 0
-3450 1359 -347 0
7993 8853 -81 0
5428 8081 6630 0
19 2501 9033 0
-1902 8665 8867 0
-4956 9068 -5335 0
9569 5690 8408 0
-6441 5440 -3794 0
9436 1864 6755 0
1055 -1229 4381 0
-1166 7825 2630 0
3200 -5608 -1711 0
2501 -9622 5857 0
-1726 300 4371 0
-6697 -7777 -2706 0
-5773 -798 3031 0
-5597 -2711 5710 0
-4993 2700 -9291 0
-1760 8477 9202 0
-3139 -3476 -1187 0
-9185 -1622 -837 0
8241 -3481 -8367 0
-9535 3294 5470 0
-7886 8238 -383 0
-5738 7427 3145 0
351 839 -9101 0
-2612 1324 8139 0
7919 -8311 9451 0
1342 -5242 -7006 0
-2754 -615 -6821 0
9596 -801 3858 0
-7393 8149 1005 0
8138 4815 -8443 0
-3463 1553 5954 0
5145 6034 -7286 0
-5553 -3768 9096 0
-6412 -8181 -4398 0
9451 4138 5855 0
-7288 -8014 -3600 0
-2116 -1383 -2167 0
-6082 -3669 -3685 0
3946 -4292 -4411 0
-3851 6559 -3193 0
-5778 -3646 -4563 0
1576 -3101 -8618 0
-4020 2989 -2950 0
342 6391 -9998 0
-6678 -3351 1559 0
8609 2669 -6555 0
-939 -6061 7689 0
-5035 696 -9421 0
3903 2582 -9453 0
4884 7578 -2052 0
-5297 -4809 2292 0
8285 4297 8691 0
-524 -3879 -6517 0
7083 5005 -3013 0
-3753 302 -9101 0
-2450 8185 -8082 0
-1748 2165 2831 0
8882 2246 -6232 0
-5775 -8893 -7123 0
-5806 -1753 7596 0
5757 7775 -6672 0
-3343 -5914 -496 0
-5010 -3463 -8862 0
-9161 -2362 9026 0
-1231 -2116 4035 0
-49 1705 -4893 0
-3494 -324 -9220 0
9811 4543 -5771 0
-6225 -1529 -987 0
9362 2971 3355 0
4641 -3809 6206 0
-9222 -8457 7983 0
6137 -9756 5805 0
1412 -7306 -5787 0
6761 3806 4922 0
1330 1729 -1677 0
4021 7202 8575 0
-1820 2725 7642 0
-7073 8403 3864 0
-8047 8008 117 0
-8515 8198 210 0
8206 -3288 -2778 0
-6148 -547 3541 0
-7469 5873 -4695 0
-7807 -2747 2300 0
-1691 8873 6722 0
5746 -3170 -8613 0
-6378 -4795 -9045 0
-680 6261 5984 0
6004 -5595 -558 0
-9301 -6297 9100 0
-776 -5156 4860 0
-2333 -9273 2672 0
9680 -4518 -7262 0
-5993 7640 141 0
-6957 -5242 -7127 0
3781 -3664 -8902 0
5517 -4148 -9980 0
9919 -7036 9753 0
-4538 1270 -6359 0
-6885 -9637 -9053 0
4518 468 -9585 0
6480 4985 -8904 0
9683 1622 -5745 0
1542 -6314 3523 0
2252 1335 7110 0
6907 -1644 5564 0
4782 7902 -9931 0
-9045 1462 -9672 0
5581 -7491 -8678 0
282 8961 -3070 0
-9385 3774 -765 0
-9112 46 -4070 0
-8940 1735 1028 0
2528 5921 3565 0
-552 8762 7465 0
-1428 -323 5903 0
3214 6589 3148 0
-6497 357 -920 0
9731 -3138 7710 0
-1719 -8390 7727 0
2638 -5097 4933 0
-1730 4350 4586 0
-6260 3663 2056 0
9113 7143 -6417 0
-5441 -8893 -8558 0
7772 3609 -5450 0
2990 -8398 4209 0
-402 5509 1755 0
579 5648 -8072 0
589 -7930 -4115 0
3871 -5103 -865 0
-2183 7611 -6925 0
1811 1434 2807 0
-1953 -8298 -135 0
-6461 -5400 -8526 0
-4231 9330 7523 0
-5707 -9435 8555 0
1868 -5674 6166 0
946 2694 -673 0
-9755 9278 -6630 0
-3071 6274 -1390 0
-7994 -3358 -3987 0
5386 -6401 -8667 0
4080 -5023 -8049 0
-1010 1216 5517 0
-3246 6914 -8893 0
605 -4080 823 0
1556 6680 5917 0
1351 3613 7892 0
6515 4524 -4284 0
-3875 -5242 8849 0
-5450 4458 679 0
-2982 -4291 578 0
-5431 7041 -8933 0
8132 -8706 -1635 0
-3339 5846 7843 0
-1829 -7058 1632 0
-4840 -8665 379 0
-42 -1747 388 0
-3776 -4075 1746 0
3540 9744 6782 0
2148 6175 -5357 0
2962 1254 8674 0
-5051 -7372 -653 0
7344 -33 -3114 0
7725 -8938 7229 0
4944 -4553 -2763 0
6076 8116 -9185 0
716 -49 -9897 0
-6789 -9828 -4644 0
-6620 -6083 9109 0
-5449 -9287 -6130 0
-6225 -8923 4547 0
-9499 3014 -2151 0
-9750 2644 -3525 0
-6102 8768 2126 0
8949 -8943 -1930 0
-6899 6926 -1113 0
8540 1294 -681 0
6346 -5499 9861 0
-7243 8831 -7107 0
-7069 -413 5718 0
-2244 7382 2076 0
9682 -8767 -393 0
-7318 1329 2335 0
-4194 -8622 150 0
3942 -9859 -1501 0
-9231 5831 2013 0
2068 1581 -3878 0
4503 -9267 -5296 0
5531 -2634 -7490 0
3417 -5913 7427 0
3161 1022 1994 0
6918 5872 -2321 0
4825 9077 9801 0
-33 4275 -7464 0
-5644 2854 -4413 0
-5745 -1782 -7328 0
-5276 487 1926 0
5474 -5569 -1278 0
-5551 6439 -5571 0
-5935 -7982 -5854 0
-1041 9356 -5601 0
7120 26 1185 0
9247 -1095 -7764 0
-6112 257 3347 0
4072 -834 -2622 0
251 -449 -7220 0
-9724 5088 -2806 0
7562 -4058 -1222 0
-5710 -1016 -3493 0
7746 -6165 2378 0
-809 8160 3826 0
-5010 8796 -8905 0
-6125 1244 2656 0
-4060 625 -9481 0
7762 -3886 3351 0
6628 -8513 5492 0
4570 -5879 -630 0
1378 2821 -7794 0
-9227 2586 -6239 0
-4325 -8741 1208 0
-2540 214 -9433 0
3079 1408 5829 0
9997 7232 5475 0
-1485 -9945 876 0
9691 -7049 -9566 0
-477 -8815 -2534 0
1694 -2842 8885 0
7247 3697 -4551 0
5381 7872 -4086 0
2277 2127 9415 0
-3316 -7041 2920 0
-5006 8741 -5736 0
-6547 -6646 -6971 0
9107 2610 -711 0
5419 -8576 5565 0
5304 -7546 2633 0
-9370 2571 598 0
3032 -8133 -6404 0
-7851 -1838 8362 0
-2850 -8312 -7909 0
-4868 -4615 -7312 0
-211 2723 9755 0
-7946 -2455 332 0
-3067 2011 7618 0
-6427 -6551 2795 0
-3442 -767 4287 0
-6181 4960 -9119 0
5454 -7663 2297 0
-3057 -258 6308 0
7001 -8834 7955 0
-8836 865 9914 0
-1874 -6883 -4265 0
4599 3407 3772 0
7277 7811 -9904 0
4570 -8284 2851 0
-4889 -6481 -1938 0
6046 -7209 -4794 0
-9555 7968 4701 0
1377 1394 -2212 0
9012 -8133 -698 0
-2984 6132 -3804 0
1769 -4932 -7394 0
-1391 -7944 -6898 0
-8912 -4990 551 0
3505 4871 -7674 0
-5149 -8264 -3327 0
-7268 6598 122 0
-9312 231 2638 0
-5373 9918 6436 0
-4319 6540 -6729 0
5020 -6835 -5804 0
-310 2702 -5915 0
-2245 -1638 7947 0
7115 3612 -365 0
3435 -3117 1102 0
-6159 8780 5350 0
-9377 -786 -861 0
-7909 -717 2881 0
-3223 -4670 -1771 0
-1210 2789 8291 0
5541 -7754 -6904 0
7550 1571 3969 0
9438 5924 -8449 0
1390 -8174 -7931 0
-1509 1458 5607 0
-4619 -2499 -1798 0
-4874 -9760 -3062 0
-9333 7742 -4100 0
5065 -97 -1877 0
5570 2994 -7025 0
1043 1178 -5314 0
3773 5006 -6816 0
-4717 -6495 2174 0
1589 9553 -8341 0
-4213 -2448 -3805 0
1499 -9640 -1815 0
-9250 -9569 1598 0
5172 8678 -3303 0
-2198 -828 7299 0
9133 -7130 -8577 0
-9853 8321 -1541 0
-3916 2159 -4852 0
-5393 5652 479 0
-8444 2848 -9959 0
5690 1828 3233 0
4010 -4044 -8022 0
704 3225 -5596 0
7634 6206 1598 0
912 8518 -9662 0
-8161 -6900 -1868 0
6446 -756 -5304 0
-7614 368 2762 0
-4623 -2074 -3921 0
5328 -9559 3906 0
4158 -9903 6144 0
-6247 -7564 2616 0
-9546 9823 -7944 0
-8478 1200 -3253 0
-3198 5525 9086 0
4995 -820 2725 0
-9619 -1108 -603 0
5899 -3910 -3482 0
-639 7048 -81 0
5647 2615 -2255 0
2653 -483 -1844 0
-7147 6189 -9817 0
9031 425 5907 0
-2173 -6618 -2174 0
-7168 5042 3946 0
6177 4483 -6601 0
579 -4282 7248 0
9415 7858 -3989 0
4250 -7444 -5862 0
-4066 -6452 4978 0
3768 6202 -1700 0
-7113 -7964 799 0
-9441 5387 -3936 0
4316 -2198 9380 0
6640 1556 753 0
-3959 -5107 -4530 0
8524 2127 -7881 0
3063 6604 1832 0
4659 -5587 -8876 0
-3552 886 -1742 0
7396 -2419 4086 0
-8012 9100 -7730 0
9051 5744 2584 0
-204 3612 1515 0
7122 4427 8876 0
7966 -3148 -8497 0
-4088 -8668 4404 0
-4128 676 -4852 0
6988 2983 -3140 0
-5825 -3413 -6855 0
8424 -6158 -3656 0
-5345 7373 -5543 0
5625 -9277 1327 0
-947 1384 2303 0
5541 5387 -7173 0
-9906 -868 -4360 0
4630 -4347 1175 0
-6732 9460 -996 0
-9779 8610 2067 0
8079 2958 1085 0
3130 -9168 1375 0
-5537 9417 29 0
7767 4334 -806 0
584 5462 5908 0
6984 -9634 -7571 0
-7680 -4767 -66 0
5999 -9194 3933 0
-1255 151 -6417 0
7940 1488 -5701 0
-3168 7004 -6101 0
5305 -9426 -6482 0
-7079 5115 9847 0
-1671 -9564 4360 0
5958 -3020 -3012 0
3489 2274 3150 0
5347 4863 -6424 0
4479 -286 7092 0
-8207 4608 7377 0
-8802 2077 8408 0
-2702 -518 -2748 0
5199 -8230 5983 0
8159 7889 -2002 0
7437 -2750 -6403 0
-5664 -9784 3029 0
-4814 3278 558 0
-1073 5954 7546 0
-2742 9933 3053 0
8594 4724 8555 0
3637 -673 6270 0
-8062 2759 -7462 0
3607 -3032 -5920 0
-2822 -7770 3530 0
-4155 1628 528 0
9246 -8443 6508 0
-7307 -2426 -1235 0
5458 -9904 -9743 0
6700 -4255 421 0
7340 -1158 -6566 0
-8900 -2384 2363 0
8024 5778 -143 0
-519 4112 2319 0
-117 3531 -8482 0
-189 -6234 -7902 0
9880 3733 4031 0
4375 6602 -2829 0
1655 -5373 -9068 0
351 -2326 6120 0
2440 -8473 1525 0
-6926 -4888 -921 0
392 1102 -5871 0
6122 5494 -184 0
5879 1012 3409 0
-5512 6621 6435 0
-6612 8118 -1587 0
-5977 -1443 -5615 0
-8876 -4942 3906 0
4897 -8174 -2449 0
1175 4466 -118 0
-1179 -8422 -4068 0
-3071 -1644 -4091 0
-6766 5284 2318 0
-755 -2924 -3672 0
210 6856 -8842 0
-11 -4977 5475 0
4085 6296 -7141 0
-6710 -4776 3485 0
282 -8567 8210 0
-8554 8258 2523 0
7359 9071 2836 0
-3926 -7389 8112 0
-359 -7885 -7219 0
4372 8314 -3166 0
-8977 5650 7388 0
4761 -5015 -8697 0
-8277 -3782 -4726 0
-7488 -1349 3490 0
-2375 -1611 -3770 0
7669 -6097 1339 0
485 -3412 6240 0
-9515 7421 3568 0
-6179 4280 8436 0
-7360 -6 -7631 0
-6810 -4043 3999 0
5932 -8464 1167 0
-8526 9769 -6129 0
-1980 8675 5608 0
965 -6683 6635 0
4031 -5292 -6500 0
-9102 669 3885 0
-2253 9902 7443 0
4488 8148 6615 0
-1060 3224 -1076 0
550 8562 7037 0
-3465 5798 -5624 0
-8484 2188 8556 0
-2163 -8312 -8070 0
3218 1214 5109 0
-5772 -7996 -2592 0
6747 -6357 -3337 0
1234 1504 4563 0
5434 2824 -6655 0
-4313 9324 5522 0
-5857 -8733 7556 0
-4604 4230 -1094 0
107 6039 -507 0
-1240 -7028 -1403 0
5616 7552 -5789 0
-7005 -6994 8054 0
3360 3933 -6368 0
-1833 9228 -9101 0
-7615 7083 -6674 0
-8235 -866 -8326 0
-3541 9166 -5262 0
2483 -8028 8357 0
5829 3582 9590 0
116 5622 892 0
5544 -4222 -627 0
5960 -9787 -4774 0
8881 -5308 -1237 0
1328 1141 -7639 0
-2860 2287 -762 0
-7492 -2763 -2664 0
-8927 -2133 9114 0
-9135 9842 5722 0
2166 8521 -7019 0
9809 -2881 709 0
-4337 -1192 4096 0
-6024 -9660 222 0
-9399 -4587 -8960 0
6914 -9083 1512 0
-5465 1956 -374 0
5428 -3993 9233 0
-1577 413 -6340 0
3876 -6844 7669 0
4902 -3498 4010 0
-7074 5911 -9651 0
206 -485 7069 0
-1012 9604 -7268 0
340 -2155 9514 0
-1270 6161 -9276 0
-2225 -5631 -9428 0
7619 9215 -8525 0
4591 304 -2954 0
-5799 -1008 6669 0
5288 -9876 -4102 0
-5030 8911 4393 0
669 -5003 5960 0
4970 277 938 0
-8811 -1980 7106 0
-6598 3297 9047 0
-1480 1290 -3386 0
-3512 -2513 -2646 0
-7472 1529 9763 0
5733 8432 -1951 0
-2408 8436 3236 0
-727 1895 342 0
6574 6416 1570 0
-8063 5170 5994 0
-9109 8634 -4820 0
4129 -1888 1799 0
-7656 -9333 9535 0
-275 2786 904 0
-1860 9761 -4160 0
175 2465 3158 0
-4798 2777 -5747 0
-6653 3245 4366 0
4731 -1798 -4004 0
5847 6886 9690 0
-8645 4683 -6516 0
-4823 8652 6623 0
1695 7289 5210 0
-199 -5715 -934 0
9545 571 -5801 0
3746 1933 3799 0
-748 994 5406 0
-8710 -2171 1383 0
-8773 -1548 -962 0
-6063 5498 9251 0
-9522 -5051 8816 0
4474 -7948 7778 0
-8331 2259 -7741 0
7667 -9324 7921 0
-9347 4774 4187 0
1414 -3867 -2277 0
2827 3283 3263 0
-3423 9329 -9981 0
6328 -8044 -6202 0
-8129 1819 -6228 0
3070 -6254 9508 0
-1663 -627 -2228 0
6752 -31 1842 0
676 3703 -5626 0
9336 -6811 7802 0
3265 1400 5499 0
-5491 8020 7993 0
-3543 -7515 -2305 0
8193 -4243 -5168 0
6571 8290 4924 0
6292 -9261 -921 0
-3766 -5331 7558 0
-6531 -7587 -6186 0
-54 -734 -4053 0
3166 8958 -8368 0
-6781 -7147 -3876 0
-4070 -667 3635 0
690 1292 -5095 0
8979 1286 919 0
8676 -4998 589 0
-6192 8830 -875 0
-5741 6435 -597 0
-499 6270 5732 0
9082 3616 -7815 0
2691 -8399 4817 0
-5453 4583 4362 0
2780 -3306 4950 0
9624 -5760 -4607 0
-3886 8319 -9786 0
2268 -5794 -9081 0
9445 8010 -3636 0
3653 8686 -6242 0
-9531 2958 -2938 0
2858 598 -1267 0
2647 -7722 1845 0
7517 -5122 -4373 0
-326 7019 -3910 0
-8421 -4001 -1372 0
-1585 775 258 0
7179 -6326 -2984 0
2040 1246 9665 0
8440 -8208 -383 0
-2600 -5015 -8016 0
4432 -6817 5913 0
3557 787 -8833 0
2441 8141 -4298 0
1570 2575 -6680 0
1125 6132 1926 0
7318 -952 6783 0
5384 -1822 8294 0
-774 4754 -3631 0
-2584 -1044 -6774 0
1690 -2843 7436 0
6715 2315 -7180 0
5460 -1963 4918 0
2180 -6871 -6254 0
-4775 -1576 -9720 0
-6498 5125 -8558 0
3272 -1828 5092 0
-7054 158 7088 0
-1637 3566 -718 0
-410 8722 -1426 0
-9537 -5349 -2828 0
-936 9635 -5473 0
4556 -5788 -1595 0
3237 -52 2594 0
952 9462 -7906 0
-860 -960 -8994 0
6377 -5096 9434 0
-7838 -121 -3834 0
-5851 5544 2348 0
-7779 -9784 -2309 0
8611 -606 -1585 0
6252 -7217 6938 0
894 6778 8770 0
-3761 507 3475 0
-4249 -623 -3759 0
8857 -3531 -3929 0
494 8585 -478 0
1388 -1193 -1125 0
5241 7803 -5263 0
-5970 1703 1856 0
6743 3889 5404 0
5376 -3881 6748 0
-1883 9755 -7230 0
-132 2249 5350 0
-4012 -2965 3812 0
-3054 -8924 6898 0
7226 1433 -2954 0
3241 1191 5738 0
6127 1602 -4405 0
-1827 3718 -9821 0
3904 2012 -8898 0
155 -1280 4553 0
-8289 3445 235 0
-7555 8312 -8620 0
9684 -9695 2674 0
9247 1668 -5486 0
-9372 5601 -9765 0
1212 -3371 9079 0
7206 9102 -4273 0
-7955 7712 -3353 0
5960 -9805 -2867 0
5947 2482 -191 0
4204 9507 1867 0
-4285 7428 -866 0
1841 1794 5444 0
6462 1529 -6059 0
3686 7165 2286 0
6111 9284 -3705 0
-4524 5429 1226 0
740 -5996 -9776 0
-7354 -6372 -7863 0
7226 -437 -9523 0
-1941 5056 8598 0
1890 -4526 1561 0
4589 4965 9747 0
2437 6074 -2869 0
-8398 -9431 -2091 0
4389 -1412 -5659 0
7468 3383 -5411 0
-9903 504 7097 0
-4919 -6066 1738 0
-3044 -3049 4482 0
427 7700 975 0
80 2864 8490 0
2956 -497 -9554 0
7437 -1344 -1281 0
7900 -2954 6326 0
-9332 6121 -6804 0
-2620 -7105 -5654 0
-4685 8480 -3869 0
-4694 6493 9471 0
9441 -6016 1489 0
9469 -6545 -1449 0
832 -6515 4037 0
-4025 -3252 9494 0
9466 -5269 -2431 0
-2692 5840 7247 0
3731 7026 -3134 0
9813 -8420 -5243 0
7314 1127 -6187 0
4822 3283 -649 0
-2587 -8648 4600 0
-3878 4639 9313 0
-3164 -6393 1366 0
4332 8950 4293 0
-1261 -2540 -199 0
8162 4725 2076 0
-4081 9859 -7841 0
-8164 -9870 3006 0
-7529 -9899 -268 0
-686 271 2947 0
-1772 9510 -8552 0
-9445 -3998 -4274 0
3939 -3549 4345 0
1993 -7992 6560 0
9482 -3130 8578 0
-9779 -9196 5504 0
2522 5532 -8516 0
6644 -5675 876 0
7505 -7435 -3673 0
827 -7545 -2046 0
-8968 6903 4452 0
6434 7516 9066 0
1851 -2870 2226 0
8876 -2863 -4567 0
-6412 2673 670 0
8559 -2613 -4781 0
-3010 6013 -3960 0
-5004 6975 3150 0
7358 9551 2836 0
1612 -8414 9669 0
5328 7440 7042 0
2113 -8335 -2592 0
-1796 -4959 -3995 0
3396 -4170 -4343 0
-7260 -4492 -3056 0
-4491 7479 -491 0
902 -8938 -7322 0
316 7819 1584 0
-465 -9166 -6312 0
4561 -4150 -1157 0
-3181 5940 -1877 0
7544 5628 -2503 0
-5957 -7745 -7365 0
6365 730 -1568 0
-9759 2652 -1310 0
-9017 4003 -410 0
-5499 -6232 5036 0
3463 -6641 -8848 0
2453 -7653 -5090 0
-6076 855 4778 0
-1956 9395 8341 0
1605 -3010 2057 0
802 6599 4657 0
3493 -5716 72 0
-1305 -4119 3438 0
8915 -727 352 0
9761 -7934 3432 0
-2802 -5996 -6236 0
-9378 -2486 8064 0
-4911 -9887 -5355 0
-5275 2 -7016 0
-2993 -6169 3391 0
126 -6434 238 0
-2295 -175 -7944 0
1866 -7165 -4833 0
3296 -2679 3546 0
5840 -4645 -6444 0
5066 6430 -1846 0
7167 -2253 4156 0
-2500 9810 -4036 0
2983 -4011 -7878 0
-5048 7349 -8593 0
-9447 9826 -3260 0
4053 -7511 -4490 0
-35 9745 -6817 0
7105 1988 1641 0
-3414 9418 -5008 0
-6216 8250 -533 0
-4063 2083 8616 0
3166 -5012 -7498 0
5601 -4869 -6214 0
4664 -4777 2234 0
-3460 -7101 7977 0
-5187 3425 5677 0
-9244 -9642 9719 0
5374 -9282 -8712 0
-4861 -1821 9468 0
-7329 -1888 -5998 0
5444 3197 -5113 0
-7531 4603 764 0
-2833 -4511 3788 0
-4540 -9681 -7911 0
-1315 4871 -3510 0
-4121 3459 -6280 0
-4041 -5886 9597 0
8691 -9828 2769 0
6545 381 6032 0
-1536 5405 62 0
-3132 4547 7565 0
-6656 590 2370 0
-3135 -7710 2529 0
524 -3191 3254 0
409 2275 -7481 0
8113 2808 6996 0
6562 -5423 -2035 0
-164 2043 5847 0
-5634 4948 6319 0
-7820 6918 -3860 0
-4861 661 7584 0
7737 4845 8355 0
230 193 602 0
-5358 -9275 -7584 0
-9798 8173 -9654 0
7293 9536 6255 0
-2432 5314 -8 0
6822 -7014 -1063 0
8631 2947 -8862 0
-5705 -8723 -8690 0
6723 -1844 472 0
1446 -1494 -5121 0
4461 -8808 -2831 0
2478 7407 429 0
2974 6023 2423 0
-9461 7805 -4870 0
564 2234 1190 0
6895 4067 -1497 0
5634 1553 -3717 0
9988 -7601 7463 0
8349 1669 -3792 0
1599 -9050 -5358 0
8032 2680 3325 0
8340 3450 -9065 0
-5265 8032 -9007 0
-6283 -1415 7472 0
-8667 -7967 -4800 0
-574 2342 -4855 0
-9444 -4586 6971 0
9149 -3960 -2273 0
8887 7063 -7256 0
1479 -763 9239 0
-5937 1516 -1354 0
7021 -8214 -8167 0
-6592 -5913 -6166 0
-5091 9366 -3144 0
-5535 1168 -984 0
-2232 -8727 -3726 0
3740 3181 7137 0
-557 163 2797 0
-6587 7258 3850 0
4728 9610 -3473 0
5537 5828 5610 0
-3786 -9534 1385 0
3447 -3581 -5328 0
-4087 -114 -1992 0
5280 -4346 5665 0
8478 933 -9072 0
7008 323 5015 0
4135 -1511 -1726 0
2921 -3368 2218 0
-4099 3907 -7488 0
39 -9115 8483 0
3448 9614 7357 0
-288 -7734 4796 0
1914 -4367 -65 0
-4730 -6899 7149 0
-5012 9724 2451 0
-2747 1518 3509 0
776 -7142 8775 0
-4331 4452 -1610 0
-7501 -5231 6949 0
-7906 -8761 -9622 0
9592 9701 -2448 0
6821 -6844 9091 0
-5484 5822 -6320 0
1107 -9257 5214 0
8683 6833 -6490 0
2591 -5951 -5903 0
4215 -8761 5545 0
-9621 2292 2549 0
-4559 5566 -4502 0
104 4279 6059 0
9092 3140 -7948 0
-2836 8827 -4009 0
-8618 4280 6492 0
-8355 5976 308 0
5029 -2783 6944 0
-2993 5329 7097 0
-9340 -9917 764 0
1849 9556 -5681 0
6507 -2315 -109 0
-4717 -4031 -3381 0
-116 -8658 -8468 0
-7295 -6975 -539 0
-6265 6845 9602 0
-9615 4408 1925 0
8852 -9906 -828 0
6046 -1918 -6645 0
-5720 -5268 6168 0
-2420 4791 -5071 0
-7766 -2039 1554 0
6497 -4889 5786 0
2530 9683 -9066 0
1879 5773 -157 0
6602 2903 8916 0
2084 5901 -8434 0
-7844 2930 -6589 0
-5899 5325 7887 0
3589 -7670 -3387 0
495 1177 -6131 0
4588 4424 -2835 0
4290 -5206 3341 0
9828 -3681 2257 0
5645 -374 -7588 0
-1559 -8341 3513 0
-5674 73 6505 0
-4663 -7022 8733 0
1304 -2851 -6226 0
-4535 -3354 8072 0
9658 -4318 -2758 0
-5637 437 -6423 0
-8425 4864 8312 0
-6882 7482 -2973 0
-5331 -9550 -7928 0
-5732 -3158 3116 0
5403 9520 4858 0
6901 -8183 -5093 0
6062 6025 8230 0
1288 8756 -3978 0
3348 -423 369 0
-5482 -4712 8179 0
-5956 7 -5023 0
-8748 -3979 9275 0
7842 6975 4621 0
6847 8272 9135 0
-2170 -443 3310 0
-3052 -8 992 0
-419 7433 -6358 0
-8670 828 -1400 0
-8904 9966 -6883 0
5797 -8450 -3395 0
9683 6731 9583 0
3943 -2298 -5660 0
6819 2246 4589 0
-6996 2278 1900 0
-4284 -1284 7590 0
5115 -3167 5839 0
-8993 -4393 -3011 0
9876 -8698 8302 0
2611 -7471 -2227 0
-3330 1206 9099 0
4361 989 -4230 0
-4268 -2494 1207 0
-3441 -2317 -2584 0
2321 -4075 -4569 0
5667 5807 8040 0
2442 8821 7735 0
-6703 7871 332 0
6488 -5033 -8847 0
7428 -9949 8980 0
-6813 2957 -6649 0
176 -6416 3149 0
4154 3991 -8383 0
2419 -5124 2190 0
-7677 8898 -9657 0
-6336 133 -9591 0
2338 5780 -3954 0
6364 -9340 688 0
3157 1905 5067 0
-6525 5631 -3727 0
-7360 505 238 0
-2981 -8890 -1881 0
9245 -3270 -3029 0
-5668 -783 3665 0
8763 -7977 -2372 0
910 -7656 -8665 0
4330 -5897 -9387 0
-429 -9696 -7554 0
-3028 787 4291 0
-1743 -8971 -2553 0
9811 -1987 5873 0
5916 -329 -4711 0
-871 967 -4997 0
-424 -9184 2087 0
125 -7307 7085 0
3013 3231 8715 0
3208 1504 6946 0
-8066 -9030 -4342 0
1328 9115 3250 0
-8562 5738 8183 0
-7181 -5427 -4476 0
9193 -2335 -2224 0
5422 4448 -3649 0
-1813 3960 2070 0
-9556 8049 336 0
342 -9402 7935 0
4360 -8261 -9124 0
-1578 4459 1609 0
-6092 -7842 -9391 0
7078 -6708 -819 0
5992 -1462 1542 0
-6625 3208 -1006 0
-5688 -6721 4612 0
901 -9959 3939 0
-6654 -1861 6685 0
6129 4094 2694 0
-3454 8058 3662 0
-5989 6609 -9393 0
1358 -9844 9872 0
-7676 5115 -7305 0
2004 3021 -2200 0
1349 -8907 9320 0
-9645 8645 -4142 0
6395 -8820 -4958 0
-214 -7136 -6109 0
-7865 418 7122 0
-6035 -4433 -4409 0
-3127 5432 7912 0
-9058 -1459 5248 0
9264 9468 9744 0
-2720 -2825 3345 0
-990 6071 5092 0
-2540 -7588 -7161 0
3847 -1357 8497 0
5002 -8515 385 0
6632 -7577 -3436 0
6273 4718 -7736 0
-9392 -3464 -4203 0
-8870 1853 -6070 0
6185 -166 -4283 0
288 -907 7266 0
-1506 2278 -420 0
7640 -3881 -1539 0
-8168 6833 -9446 0
-453 1744 -6943 0
-2570 -9741 5225 0
-4083 7928 -3821 0
897 -2598 -4280 0
-1066 8202 9908 0
-5427 -2688 5788 0
4112 3539 3348 0
6732 -7188 -2722 0
-4528 -3650 -9897 0
4293 -7190 -1383 0
3077 3673 6618 0
-4848 1836 -1536 0
492 -698 -4273 0
4393 -5390 -2397 0
1725 -1624 -5601 0
-1545 -9794 -4751 0
-2571 -8474 1076 0
7414 1926 -3602 0
8500 -8961 297 0
-6234 -5966 -7276 0
-6020 9148 -674 0
-3325 -5123 -4305 0
943 1356 2042 0
6509 -4010 -9206 0
3680 -8554 -8779 0
8206 4353 -3175 0
636 -5325 1298 0
8352 -9283 -7050 0
6293 -5167 9793 0
-670 7136 -1523 0
-4469 -249 -3549 0
-2116 -7823 -8801 0
4903 -4695 877 0
6535 7478 -1322 0
8082 8806 -6131 0
-3217 5101 6442 0
-352 2904 -7230 0
2496 923 -3971 0
7520 9486 -4540 0
-98 -9033 -3572 0
-164 -326 -4201 0
-5851 -70 -7579 0
-7678 -976 -3082 0
-491 -4190 7142 0
1198 9917 -2211 0
-5769 3691 7821 0
-1336 -1079 8900 0
8716 8960 -7208 0
-8998 3113 1056 0
-2620 1397 -8925 0
8152 7455 -2926 0
-2097 -6274 4311 0
8545 1479 5322 0
-3858 -1300 -6073 0
4772 5111 6648 0
-8610 4053 -2515 0
-6636 -5602 -6175 0
7851 -1974 4427 0
-9605 -95 5847 0
8280 5504 -9500 0
-2745 2360 -6745 0
266 -8212 6023 0
6754 354 2372 0
-224 9812 3888 0
-5911 -1225 -7993 0
-2244 -5822 -775 0
6625 -4003 3300 0
-4164 -514 -8562 0
7748 -8571 -338 0
-779 1682 -5349 0
4209 3297 7416 0
-2805 -8641 -4355 0
-8654 -8414 -7625 0
8360 8455 6697 0
-4094 -7637 -8357 0
4589 3246 4434 0
-3000 5964 -6841 0
2149 3198 1016 0
-3183 8521 -5280 0
711 -6424 -4490 0
-6776 3450 7403 0
-9962 9477 2885 0
-4575 9352 8824 0
-506 -1611 -9617 0
4317 -9005 -7194 0
4421 8036 -3050 0
3185 7097 -132 0
5342 -4437 4572 0
-1276 7191 488 0
-9613 7840 6124 0
-3042 3893 -2514 0
3667 726 3524 0
-1356 2268 1608 0
-479 9412 5226 0
-8353 -3257 2906 0
2643 -3530 -698 0
-270 -8610 -1718 0
2740 3552 -1884 0
-2035 -7525 -4193 0
2952 -1833 -8416 0
2782 -4537 7493 0
-1647 -8440 6243 0
3069 -3271 -8528 0
4376 2047 3019 0
9338 4100 -3517 0
-7141 6406 -8822 0
245 7620 -7596 0
415 3274 5862 0
661 6060 7449 0
4050 5873 -5483 0
-2188 8547 -847 0
-5232 5493 -1175 0
7330 7799 7616 0
-3023 -8741 916 0
-3920 -7831 -3057 0
5265 6006 -6860 0
-4070 -2015 4841 0
-8922 -6895 7327 0
-4088 -5621 -4334 0
-293 -5091 1553 0
-8082 5908 -6501 0
-828 3415 -2855 0
1632 -3637 6401 0
5008 9838 -7532 0
1375 -2656 9430 0
-5583 -9783 2395 0
2694 -5637 2539 0
-4696 2082 -911 0
-2809 7421 -3527 0
-4253 -3425 -4628 0
-2967 5469 9613 0
8979 2332 7938 0
-9634 9353 -3748 0
9834 2578 -4982 0
-8803 2081 -293 0
3593 -4765 9806 0
-1991 5884 9451 0
-2495 -3122 -3319 0
-6250 1896 -1020 0
-5716 -2255 8478 0
-7184 -4598 -1839 0
7891 8107 -5054 0
-6674 -5484 -3182 0
-487 -5727 -944 0
8553 7401 -187 0
1584 9742 -5106 0
-7153 -5011 -3661 0
-4633 8550 -1021 0
-8629 9223 3855 0
-382 8181 6720 0
9567 -3238 -7722 0
-4018 -5744 9958 0
5019 -3770 8958 0
-8422 -2272 -539 0
5036 -8413 8846 0
-3773 3431 -4739 0
-3161 -1280 -6499 0
-947 3531 -7182 0
3005 5812 9921 0
-9527 -6739 -6308 0
3388 -767 -6127 0
2590 4884 8917 0
9127 7234 1286 0
-8746 4517 -2718 0
3297 4978 -8510 0
8785 9568 -5815 0
4906 3647 9762 0
808 7472 -3686 0
-5026 -6980 652 0
-8061 2271 -7422 0
-4488 8073 8325 0
-4276 -553 5241 0
2196 -2813 7922 0
-6812 -6589 9758 0
-1359 1227 -6297 0
1723 7320 -7802 0
4644 7125 7574 0
-9169 7427 7916 0
2066 1101 -5654 0
2863 8182 -726 0
-6778 -4447 712 0
8204 8454 7696 0
7776 7228 4292 0
-5046 -6489 -8160 0
4584 -1736 -3268 0
-310 685 -6562 0
860 9381 4906 0
9727 -1069 5376 0
-6771 -5350 4465 0
-7125 811 -3322 0
548 2991 7950 0
7070 9230 -9759 0
-9565 9191 -3748 0
8347 -6203 3862 0
-908 -812 -4962 0
-9551 9883 -4101 0
-1019 1871 7508 0
-1943 9947 6475 0
4026 -8026 -9648 0
-5181 5959 -1405 0
8276 -4523 861 0
2792 -946 -4948 0
-2918 -4573 -5639 0
-754 1307 -4808 0
-3506 5135 6856 0
-7461 4316 2831 0
-2137 -597 5055 0
2771 1410 9585 0
446 -4846 3720 0
2534 -6322 -2859 0
9329 1269 7511 0
523 -9769 5646 0
4140 -3661 813 0
7885 7731 -5817 0
-8353 6047 -8002 0
-3203 -3748 2201 0
-5722 3848 7425 0
-6455 -743 -6534 0
-5610 8819 -3016 0
4114 -6478 -1150 0
5551 -2754 2158 0
-6898 6736 7484 0
8187 442 -301 0
-9662 6172 3997 0
-7419 -11 6036 0
1628 -805 -2543 0
9131 4812 -298 0
-6788 7443 8861 0
-1984 3099 -4254 0
-2751 7299 -271 0
3790 -2532 -955 0
-2540 9741 5649 0
3579 1168 -103 0
8970 2622 1971 0
464 4555 6797 0
224 -4150 1978 0
2532 6901 3596 0
446 -8344 -7529 0
4320 8607 9620 0
3602 645 -6072 0
-1412 7982 -2128 0
-348 -3935 -2875 0
-6301 -9267 5026 0
9177 4641 5452 0
8531 9409 3018 0
-5658 -5167 3629 0
5977 -6299 -770 0
1929 -1290 -7270 0
-6687 8739 6435 0
-9009 9372 -9241 0
548 -9291 -1728 0
-9516 -4144 -5234 0
5007 -4432 -7768 0
8670 7406 4597 0
2776 -1603 -1146 0
2467 6021 -7531 0
-5603 -9589 7185 0
2223 -6748 6019 0
-9652 7872 3702 0
2503 9690 -5682 0
-3273 1179 4737 0
-5192 6939 5822 0
5535 -6166 -8894 0
-7360 5167 -1169 0
8291 -5121 -2289 0
4602 1402 7186 0
8496 2767 2508 0
-472 8511 -3621 0
-4400 -1082 1556 0
957 7457 -718 0
-348 -7174 -1214 0
2796 1599 141 0
-3605 9201 -8781 0
9357 7046 9529 0
-5396 3735 -6223 0
8978 7530 -9841 0
-9960 -1348 -6726 0
-7573 -2104 1904 0
-9893 906 455 0
-6867 -7568 -3771 0
-2968 -4469 -9901 0
-2454 -5253 -2175 0
9317 -146 -3931 0
-9972 977 -7055 0
-1269 -6901 -634 0
7187 5264 9509 0
6594 4004 -1878 0
-5363 -8309 -3887 0
4247 -4000 -5638 0
2850 3162 -6449 0
-7313 -8341 7898 0
-2755 9900 4906 0
-8016 -2766 -5739 0
-582 9924 -6433 0
-2196 9644 -3508 0
-8594 -2514 -1615 0
-9655 -3645 -3295 0
-479 8744 5445 0
949 1486 2820 0
4856 7233 -3724 0
5630 7427 -7757 0
9297 -6953 2622 0
7316 -9384 7980 0
6146 -2450 782 0
-8540 3841 -3709 0
1218 -1399 -1864 0
715 1910 -2110 0
9262 5280 4283 0
-434 -5370 6270 0
1340 -4402 6129 0
1286 -2228 9850 0
4750 1483 -1169 0
-4819 7632 290 0
-900 -6041 -66 0
7234 4963 4632 0
1743 -6606 -173 0
-1409 -5657 1976 0
-1020 5958 7511 0
-8875 -1075 -7422 0
-4570 6686 -3476 0
-1183 -7006 -6185 0
-9633 7930 6073 0
9229 -9981 914 0
6727 5820 5159 0
-7637 8191 9837 0
1549 3715 -5017 0
-9832 2549 -712 0
-6755 -4989 -3784 0
-665 -998 -3919 0
-4970 -8310 4361 0
-716 -6345 -2051 0
-7616 -2475 8419 0
-1861 1315 -9701 0
7813 -3070 -9432 0
-3739 -9594 3346 0
4831 -3734 -6457 0
4183 2038 -3894 0
1443 -3276 -5721 0
9618 4747 -1345 0
-8394 9990 -6105 0
-8673 -324 -9101 0
8112 -7009 5367 0
3537 -9268 9478 0
7785 7116 -8862 0
-91 9565 7046 0
3123 -1659 -3825 0
-8799 -8141 6453 0
8121 -4376 -7398 0
5891 820 -440 0
5027 -3347 -3049 0
-2177 2068 -4706 0
6555 -8936 -808 0
-7938 732 -1887 0
-9329 3769 -233 0
-8209 -8936 -2591 0
-7743 2486 -1120 0
-207 4785 -9613 0
3789 379 9311 0
-9563 -6767 -2030 0
5322 -7039 -5389 0
4210 -3690 5649 0
-3958 -6448 2604 0
-9581 4846 -7305 0
-6102 3795 -4265 0
7445 9293 7161 0
-7822 601 -608 0
-7025 -196 -2403 0
5709 -6283 6186 0
-5857 -511 8061 0
-4598 -6979 -4410 0
2642 -4787 -5943 0
4392 -4689 1433 0
5878 -5091 3011 0
10 -1556 -5783 0
2437 7658 6117 0
3609 -4307 9087 0
-4558 6025 3262 0
6746 -1701 2337 0
-1675 3762 -2680 0
9523 628 -4916 0
-912 2970 -4488 0
-8538 8331 70 0
-7414 6508 6003 0
-4575 2922 -8220 0
942 -4132 5344 0
-665 -7923 -6624 0
6187 -8200 -4163 0
-3199 -3812 -1172 0
3784 -3779 -3052 0
2287 4852 1767 0
-3499 8519 3862 0
-4989 2459 7988 0
-861 -4764 -969 0
-2010 -2366 -9768 0
4006 -8980 -3942 0
1489 -331 4544 0
5013 8729 8924 0
2376 -1498 7181 0
3702 -9831 9469 0
-6456 2354 -8202 0
6423 8207 4697 0
8141 2075 -955 0
4511 -8513 4515 0
3007 5406 -7534 0
-4290 -6282 9345 0
8887 -1617 7645 0
-5275 4164 -3981 0
-4353 -7296 5556 0
7116 8095 1528 0
-5548 608 -5831 0
-3373 4050 -6454 0
-5401 -3072 -1170 0
8046 -8603 9700 0
4513 5858 9241 0
-5178 4920 -5645 0
-9510 -122 5700 0
6078 4434 -3850 0
-289 8764 -1848 0
6702 -2780 4270 0
2374 2318 2810 0
2898 7685 -7380 0
-5238 110 4057 0
-3927 3902 -4603 0
-7451 4206 -7111 0
8400 -1692 -38 0
-7773 7636 -6433 0
2545 2718 2573 0
-9249 7618 -180 0
7406 -1737 8077 0
-430 -7341 -5066 0
9297 -827 1 0
-1774 4904 4118 0
9792 7303 -692 0
-6323 7182 7222 0
-726 2627 -8771 0
9385 2638 -8385 0
5815 -467 -1024 0
-5997 -3202 -8940 0
-3572 5620 8914 0
4321 6869 3433 0
-8134 2630 -1886 0
8172 6868 -9239 0
7918 -5995 -8883 0
-4057 -6946 -1132 0
-4079 8384 -5151 0
7378 1071 -5955 0
1712 3550 2692 0
8991 9170 -4141 0
-3427 -609 -1857 0
-3264 -1743 1940 0
2781 9082 -970 0
4253 -5845 1532 0
7132 -7441 7246 0
1580 5500 4487 0
6844 1237 -7013 0
-9452 478 8243 0
-1983 4822 -9992 0
-3072 2529 7625 0
-1080 -1456 7679 0
6758 -7942 6862 0
-9725 5796 4808 0
6907 -7791 6453 0
522 4423 4496 0
4588 5397 7490 0
-9751 -5260 -3950 0
5746 7118 8354 0
2600 -9649 -9171 0
-8378 8875 -3900 0
-3567 -5466 -3477 0
-6520 7387 3270 0
8972 1285 671 0
8748 -4389 -945 0
4683 -9111 7189 0
9536 -9302 -4209 0
-5866 -2646 -1857 0
1031 8962 2199 0
5932 336 3786 0
8511 -6548 -4509 0
4541 239 2736 0
-4382 4427 5712 0
-8953 1288 7345 0
6613 -328 5740 0
-2570 5206 -5823 0
-7735 -6373 -7899 0
-4254 8536 -8786 0
-3858 1667 -4739 0
-6014 -3443 -7342 0
9507 5228 9789 0
1597 83 -8974 0
-1598 1344 2833 0
-541 -9162 -3470 0
7069 4343 -4432 0
-7113 9367 2516 0
-4355 -4906 -145 0
2863 -876 6721 0
1554 -6429 -8770 0
-427 7816 1015 0
3649 -6901 -6582 0
263 -1917 5183 0
3142 8883 -9835 0
-8452 2408 -5271 0
-9102 -6878 -9988 0
3727 5808 -2574 0
7303 9750 1896 0
-2529 1490 1861 0
4882 -5559 -9638 0
-4404 -8597 1076 0
4668 1485 -928 0
-7032 -4358 -3458 0
2732 2700 7945 0
8974 -6534 8209 0
7949 -3326 6917 0
6713 197 9698 0
3025 6276 8409 0
6230 2949 858 0
9860 8478 -5248 0
3015 3974 -1466 0
1480 -4004 -3524 0
9036 -6990 6216 0
1015 -5981 -4014 0
9603 4794 7897 0
-2423 3039 -2275 0
-4560 6367 6962 0
-7957 4256 -5847 0
6553 -9123 4950 0
5497 -2659 8095 0
-7266 -3526 -6373 0
-9623 -1689 7061 0
-1545 -6229 2503 0
5686 -9977 5940 0
7176 -5641 3734 0
5150 3224 -598 0
-9161 -7752 -7797 0
4775 5939 -7806 0
-6856 -4890 -3900 0
-7446 9120 5063 0
-6836 5448 -2636 0
-6417 9568 7954 0
8443 9119 -2392 0
-3666 -3599 2579 0
-8560 -3760 5199 0
4972 2261 3761 0
-2576 7018 -9961 0
701 -6234 -5079 0
-2066 3243 5058 0
2325 -7067 -8459 0
3720 7272 4480 0
6024 668 -1554 0
-9782 -4433 5034 0
-852 -3213 1512 0
1669 6256 -8514 0
-3082 -5389 4941 0
-2962 -1863 -6552 0
-4017 5531 -1125 0
-8311 -85 -7398 0
-383 -1953 3035 0
-5702 4506 -9895 0
-8493 3852 -5879 0
7367 5582 2365 0
-9856 -2060 -3532 0
4299 -2665 389 0
7468 -3522 -7667 0
4205 1890 986 0
858 -9860 8196 0
4369 -1263 -1331 0
1940 1132 1984 0
8665 -4353 -5164 0
4370 5853 2553 0
-4172 2494 -9290 0
740 8776 -1059 0
6302 -743 -9692 0
-8525 7554 -6628 0
2553 7604 -5683 0
8751 -6867 -1777 0
-8160 5300 -753 0
6782 -9510 -3588 0
-1208 3631 -3075 0
-9728 -5912 -2519 0
-5654 -3617 4671 0
-2602 9398 5376 0
-3341 -2032 3443 0
9801 -6090 1991 0
5302 -8272 737 0
9467 -9910 -795 0
247 1878 835 0
-3276 8322 -7963 0
9644 -2483 -4819 0
2996 -1488 9039 0
7825 3056 -9779 0
3849 -1127 -7857 0
-5889 -8284 9639 0
-7440 -2420 4266 0
-8548 -5122 6884 0
3659 -4520 4145 0
9069 -9913 -3157 0
-7707 -6327 5542 0
-7606 -2781 6321 0
-1117 -6378 -9291 0
3659 3346 -1100 0
-2460 -5745 -3691 0
-974 -1932 7057 0
-9112 5425 5479 0
-2085 -9474 54 0
962 2054 9425 0
4906 4734 -9452 0
-7615 7559 -4492 0
-3985 3421 2895 0
-2984 431 5297 0
-1607 -5462 5074 0
2148 -9914 -7660 0
-9370 739 494 0
-5686 6828 -3422 0
-9055 396 9067 0
191 3120 -9170 0
3038 9045 -4599 0
1409 3351 -8155 0
-1588 7694 9274 0
-8688 -1241 3056 0
-5292 9556 9640 0
776 3781 -5735 0
-584 -2672 -6535 0
5677 -9721 -1465 0
4126 7796 -6575 0
-9977 4362 150 0
733 -2709 5683 0
-4658 196 -7122 0
-60 5262 1723 0
-1417 6698 -3715 0
7593 963 -7547 0
9517 4792 2982 0
-4280 -8176 -7472 0
8623 2049 -2203 0
9240 -8253 -5345 0
-8896 1913 -2503 0
8756 8287 194 0
1114 8400 294 0
3510 4171 9915 0
6755 2606 -2305 0
-7978 3053 -3983 0
4894 5610 738 0
8731 -8912 2298 0
7065 -4168 -7838 0
-9834 -2326 -3958 0
2859 74 5081 0
-3923 8196 9052 0
-2299 -6657 -3414 0
-1397 2708 8595 0
-2372 -8999 -5786 0
-640 658 9864 0
-1523 4131 8702 0
9257 -7013 -337 0
9945 8343 4777 0
-9952 3416 -3749 0
9311 7509 8832 0
-1086 -313 -5709 0
-4199 8260 -1510 0
7101 2037 4697 0
1734 5113 3925 0
5678 8947 7423 0
-6844 -7129 -8556 0
-1377 9714 130 0
-5736 -9610 8466 0
2498 6543 3215 0
8776 6614 -7918 0
432 4265 -269 0
9681 -3525 7147 0
-1106 -9448 9884 0
-969 -3396 7870 0
6559 7929 7557 0
1355 -4875 -1769 0
-1281 9465 -4094 0
-8250 6928 -7739 0
1890 -9718 5032 0
7992 9842 9741 0
5610 -4464 -4408 0
-2176 -6721 6480 0
-72 -6521 -8116 0
-9605 -6291 2858 0
-3083 9852 -8420 0
-6624 -8935 4964 0
8656 -588 -5448 0
388 6733 -1124 0
657 8075 9395 0
-161 1536 -7281 0
6154 7123 2421 0
-595 -6540 6517 0
3457 6706 -4009 0
3520 -6823 5318 0
4305 1184 -1050 0
-3485 -1534 -7701 0
-8081 -8539 -3906 0
7547 -1581 -1601 0
5444 2105 3534 0
7305 -3297 -1565 0
1911 5416 2495 0
1888 -34 -7239 0
3086 -3888 -9347 0
9350 -1613 3963 0
4156 1737 -5063 0
-9478 6381 -2987 0
2471 4513 2243 0
-7956 -652 -2275 0
-4365 7948 -4188 0
4253 4078 -8229 0
-6966 8542 -9899 0
2003 4340 9845 0
-6932 -9010 9758 0
5705 7545 4788 0
947 7630 -7336 0
-4469 1904 -2286 0
-4588 4076 293 0
8633 -6012 -3192 0
-1979 8755 6214 0
-2969 3955 -9739 0
4582 4102 5063 0
5270 8530 -2444 0
1656 4174 -850 0
-5078 4925 -5286 0
-8818 1606 5266 0
-7736 2937 3852 0
3736 1802 3035 0
-7462 -7492 9304 0
2507 7004 2102 0
-3402 -5416 -5402 0
-738 6341 -2357 0
-8834 6582 9516 0
-5335 -6185 -7120 0
-1714 -8320 5198 0
-1898 -1651 -9123 0
-1266 -44 4629 0
-1697 -2639 -8826 0
-2426 1775 -5432 0
5334 4048 -7662 0
5973 -9097 4372 0
-3386 25 9740 0
-6307 -4998 6767 0
1865 913 -7544 0
-8087 -1213 -7543 0
-4847 2785 -4832 0
-1529 -4270 -3493 0
9865 5956 -4147 0
4524 4095 7407 0
-943 6125 1183 0
-7062 -4608 -8935 0
-7798 -2275 8073 0
-8946 7739 3333 0
-8470 -4171 -2133 0
-5991 -6587 -1842 0
9521 -5495 1280 0
3777 -1052 2947 0
-6416 -2878 8184 0
632 -1432 -9857 0
6259 548 -9113 0
5802 -3064 6046 0
-348 -1721 5333 0
3617 -1805 -2896 0
6563 -6061 8840 0
9690 -6094 3765 0
-3403 5081 -1636 0
7688 5622 9076 0
9270 1842 -4191 0
7129 -1887 1520 0
8556 1744 3211 0
2983 4457 -2392 0
-3283 12 -9159 0
1183 5108 6427 0
6942 -667 8572 0
9359 -5410 -9920 0
-8709 7850 -7770 0
-3926 4917 1974 0
-4359 7346 -7799 0
-3881 7760 -4752 0
-1112 -5672 3508 0
-6778 -1475 2681 0
-2347 8110 9472 0
200 7589 -3614 0
8181 -6179 3605 0
8470 248 -19 0
7313 -113 -7036 0
3064 -3033 2360 0
3190 -6690 -7652 0
-5863 -7446 -2510 0
8775 9059 -1614 0
-6672 2556 2122 0
-4124 7593 -5517 0
2379 123 -6248 0
-6748 -5183 -3387 0
-6154 3192 4639 0
7497 5915 261 0
-7046 -7567 -7942 0
-1276 8010 2433 0
9745 4708 9198 0
7372 3991 1982 0
-8666 2970 -7765 0
-4470 3999 4455 0
-1326 6073 3547 0
-9899 5278 145 0
5794 -856 -3454 0
-3118 -9126 -178 0
9225 -3134 -4312 0
-8443 1569 -2552 0
-5044 -9367 2524 0
-2998 -2602 -5369 0
4542 -7559 278 0
-4770 4762 6798 0
1526 -3080 -4999 0
6497 5909 9188 0
-6472 6748 -6866 0
-1381 -8487 1232 0
-462 -4339 -8236 0
-9923 -102 8716 0
-3332 -1326 -2969 0
9211 -1273 -764 0
-1979 -2681 5056 0
6903 -8463 6902 0
8179 573 -9524 0
1330 5212 2605 0
-7623 7705 6007 0
-1881 -2247 5334 0
-1082 -9299 3041 0
204 -9117 7343 0
-9714 6389 7388 0
1272 514 -4188 0
3607 -9393 -6288 0
-9680 -5928 8289 0
7505 5333 -4182 0
-8741 80 2691 0
1388 2338 -1959 0
1316 -7664 -5206 0
6877 -7283 8005 0
-4731 -5865 104 0
3810 9548 -5885 0
-9761 9537 -5404 0
716 9249 7803 0
6640 -700 3528 0
-9179 -1683 -2292 0
7822 9538 -1589 0
-7095 4382 6143 0
-974 9902 -819 0
2670 7803 9766 0
1321 -1080 6650 0
1010 7079 -3216 0
4500 -931 -9718 0
-2165 1623 -4461 0
4283 1620 4954 0
-3311 -1771 4854 0
-3627 8765 -953 0
-2045 8558 639 0
-7755 2630 -3981 0
8562 9203 1331 0
3734 -5440 3438 0
777 2639 -9122 0
-1312 -6348 -3256 0
-1248 -4063 -8906 0
6582 -2315 -6108 0
-2650 4146 -7791 0
-300 16 1252 0
5203 2924 -7183 0
-3666 6099 -7008 0
3357 -9393 -8030 0
6123 -6464 -1450 0
8040 2299 3559 0
9477 -5691 1325 0
7912 7229 9955 0
8172 7670 3346 0
7874 4900 -8319 0
-3873 7702 -865 0
9915 -9074 -4312 0
8511 -1470 -8730 0
-6574 7471 9231 0
5211 -8862 985 0
8376 1239 2095 0
9100 3959 2536 0
8131 2352 -7904 0
-4382 7981 -9774 0
-3248 4998 4852 0
-1307 -7219 -4005 0
-1859 993 2154 0
4312 4073 2694 0
-7201 -9727 -4417 0
151 -5694 -6750 0
-2896 -5244 -1657 0
5093 -4043 3725 0
6010 -9806 5299 0
-2587 9328 8413 0
4989 -4163 5691 0
-4656 -7516 -5054 0
-7668 -8503 -6093 0
-8246 4450 -6328 0
1875 -2930 -4994 0
-1919 -9511 -8951 0
1512 1080 -3275 0
1933 1859 -4624 0
2857 8877 1499 0
-8662 5071 9965 0
7954 7900 4873 0
-6092 -737 -8053 0
2584 -5215 -8701 0
-9079 3670 5915 0
873 -6409 5415 0
6779 697 -3343 0
3472 -7719 5204 0
-6308 7547 2986 0
-1004 -3613 6739 0
759 1597 7522 0
158 6675 -9407 0
-8237 -224 -7902 0
-6400 -6672 -8422 0
1736 2666 4481 0
-1426 7665 9834 0
2506 9019 -4021 0
-3738 -156 -6069 0
5003 -7646 7639 0
3099 -707 5065 0
3589 7496 4552 0
2488 -9436 6237 0
-3666 6162 4494 0
8932 -9381 1377 0
5596 7391 201 0
-3016 -7784 -9483 0
-1822 -2133 1386 0
3862 -6370 -4398 0
2019 4836 4334 0
8890 -4018 -9921 0
-2016 -5565 -7259 0
-5276 6949 -6266 0
9277 5945 -898 0
7462 -864 9165 0
-8376 -9217 -5579 0
987 1488 644 0
-994 9211 5630 0
7750 1117 -6894 0
-9221 -5096 -2684 0
-2103 -8886 5779 0
8837 3353 -9698 0
-6172 -7217 -9929 0
-5124 3965 7631 0
-4318 -8624 1928 0
9871 9956 3879 0
-5163 8731 2319 0
2099 -6162 34 0
-8868 -7921 4701 0
9634 8745 -189 0
3910 2582 6341 0
5126 3779 -2908 0
-3371 -5060 7466 0
8517 6978 -5628 0
-4956 3827 2092 0
-9837 9116 3432 0
-3464 -9556 6205 0
1820 872 -4132 0
2262 2812 -1763 0
-6067 1063 2184 0
-1047 -4267 9652 0
-3395 -5957 -4444 0
1668 8203 1689 0
-1537 2318 2825 0
1958 -2477 -62 0
-1987 8725 7398 0
-4387 -5057 3257 0
-7107 -9879 6798 0
-322 7201 9884 0
8128 -7355 -3092 0
-4059 -8286 -2112 0
4770 -9533 -7069 0
-3812 -8242 -6522 0
-5188 -6476 2754 0
8346 -3774 5341 0
4698 1336 -4521 0
-8787 9170 -7185 0
-1446 2955 -1417 0
9999 4620 5387 0
-493 4640 -2547 0
-3117 -8247 6488 0
-7556 -2892 -3719 0
-7448 6005 -2810 0
-2571 -8263 -3079 0
-518 4889 6475 0
-3458 -4135 3583 0
-7674 -5235 -1451 0
-1107 8573 967 0
-5688 -9917 -9356 0
3739 6189 -7315 0
-9543 5404 9894 0
-6436 7016 -2229 0
-2958 3430 -5689 0
6248 -3559 916 0
-3850 -6730 -7930 0
3609 4 -7825 0
113 -4064 3594 0
1982 -3279 -2686 0
-1411 9408 2302 0
7267 -6981 -5349 0
9219 6237 1355 0
-7569 -122 2360 0
-7146 2375 9171 0
-5196 -9391 5144 0
-2530 9922 -1261 0
3235 9495 1827 0
5889 7765 -4470 0
9126 -9142 -3116 0
9994 -6510 3013 0
2539 8839 9453 0
9867 -4455 8269 0
-3101 -7209 -5680 0
3032 -5102 -3083 0
-8124 -5530 4136 0
-5167 2586 8667 0
634 5169 -6226 0
3167 -3782 9484 0
-6017 -4186 7474 0
-396 9350 -7780 0
8167 846 -9334 0
8201 -5851 -8955 0
-7585 -5853 3480 0
-455 5182 9303 0
-3856 -2071 9102 0
-3257 -9716 -1601 0
3724 -2039 6899 0
-85 -3815 -9031 0
-9307 -5062 1517 0
-2528 2331 7397 0
8629 -555 -5139 0
4525 2443 -421 0
7041 3650 7989 0
2931 -8511 3378 0
-3451 -6402 -2693 0
-8715 -894 3047 0
-2574 -4318 -6411 0
-2625 -1586 -8579 0
713 -5273 -7895 0
4868 -2228 -9110 0
-1559 -9623 3896 0
5662 -9732 -9699 0
-7052 -6123 -8612 0
7363 -2248 -1277 0
-1709 -3754 489 0
5454 1705 -4980 0
-4209 -6569 -8646 0
7265 2045 -799 0
1263 7811 -9107 0
2112 3664 -3874 0
3934 -3511 1824 0
-3059 -5055 -6640 0
522 7388 9841 0
8115 -2387 7937 0
1812 -6809 -3231 0
5707 4628 -8002 0
6544 -1457 9126 0
8685 -1691 -1057 0
7779 -4749 -8546 0
-935 -2479 2555 0
6148 -5135 -1044 0
96 5537 6716 0
514 -2515 4806 0
-6169 7205 -9604 0
-883 -2270 -5262 0
9161 2874 -5235 0
4320 -6391 -1181 0
-7777 7137 8504 0
-6874 -2887 -6104 0
-4713 -7867 4855 0
-3458 4469 2674 0
-4265 264 6694 0
6303 2197 4814 0
5741 151 2561 0
-4141 328 9556 0
6394 -1704 2687 0
-3139 2241 -2018 0
-9874 1257 -461 0
274 -3167 4646 0
4881 -9859 -2216 0
418 -8643 8255 0
7409 479 -2404 0
-8747 -2161 3677 0
-9792 -1954 -4576 0
6287 865 7902 0
-5581 4898 -9184 0
2525 -2018 6324 0
448 3955 -4703 0
8089 4293 -5671 0
-2003 1799 4766 0
-2651 -6719 -1955 0
-4221 -686 5217 0
-3529 -1107 5743 0
660 5568 -6532 0
8459 -4982 8363 0
5372 -3599 -1239 0
-2740 7682 52 0
2199 -9396 2556 0
5377 7825 2713 0
-428 8222 9148 0
2323 -7116 4857 0
6697 6691 5647 0
7286 8087 -1784 0
2697 -4233 -2312 0
-9314 -754 9905 0
-138 2853 -3979 0
-9847 7347 -5192 0
-172 -4574 1532 0
4092 7902 -2083 0
4549 -5441 -4283 0
-9358 -6331 9383 0
-6751 -9152 3909 0
-104 9991 -1444 0
6640 1009 -2205 0
-7254 -6430 -7124 0
2116 3197 4822 0
2962 8456 2536 0
6253 -2802 -7895 0
502 374 -5006 0
2382 -2013 -2813 0
-2116 -7691 -8772 0
8421 -4049 -2917 0
-8691 9495 -9545 0
-6540 -9092 6880 0
2359 -7047 -8631 0
6388 5767 -6435 0
6651 -5961 3445 0
3911 1248 6723 0
-7937 6715 5652 0
-632 -4954 -9344 0
5654 -1355 1831 0
-4790 -6970 2311 0
2673 741 -6013 0
-7473 3092 -4480 0
-8577 6574 -5021 0
629 -4993 -744 0
565 -4448 4705 0
3366 -8442 4848 0
4757 5088 -365 0
236 -2688 -2978 0
1984 -8156 -510 0
-3273 4004 1498 0
-7929 -9763 -7213 0
8984 -4008 -6416 0
3517 -7843 -5094 0
-4062 -6143 -3781 0
9553 614 4438 0
9723 8262 -8047 0
5929 -7821 -9691 0
3546 4402 -4090 0
-5698 4118 -4812 0
9048 -3698 -9244 0
-969 -6693 -8833 0
480 -1098 -4188 0
-6700 -3183 -1646 0
-775 -6039 -3885 0
-6475 -3186 470 0
1633 -2642 -8348 0
-4374 7360 -4705 0
7243 -4582 2512 0
7583 -8172 1829 0
43 1853 9894 0
-2737 -7296 3984 0
2094 6789 3621 0
1680 -1061 2152 0
5091 -8074 1670 0
2613 -453 -7039 0
6692 -696 8307 0
9281 -5659 -8875 0
-3929 -6630 -6707 0
6754 -511 4601 0
5740 -4523 8397 0
-3381 3587 -9857 0
-2954 -4169 9576 0
-3015 3213 -2102 0
-8717 2370 5258 0
6684 -2588 -1564 0
-3398 -2846 6450 0
-5312 1287 9334 0
-77 2078 -6030 0
-5200 -2888 -2980 0
3249 353 -793 0
-2591 -1671 9754 0
9252 8893 -9576 0
5151 -5637 -3444 0
-7589 -30 -2848 0
-3836 -8227 3064 0
-1574 8845 -7098 0
-7843 -4029 -5612 0
9689 9817 5065 0
3635 -6810 -2846 0
-2795 9116 9545 0
6912 6648 666 0
4189 7902 -4681 0
-8263 7319 -7782 0
341 -1047 6315 0
7019 9011 -6855 0
-5562 9995 -2514 0
-5598 7239 -315 0
-9725 -2802 -9395 0
1257 -5180 -9871 0
-4044 -9994 -7661 0
-4150 -2407 8724 0
9078 59 3495 0
6400 8874 -2372 0
-7685 -4386 -727 0
-7086 5878 131 0
2129 747 511 0
-7809 1080 477 0
3985 -9521 -1270 0
4868 -8405 2502 0
-436 -2841 2559 0
-725 -9000 8534 0
-8555 -6554 -5597 0
6161 -2667 9517 0
2420 -1191 -61 0
-8145 9714 -7133 0
-9607 4615 -6836 0
7828 -1725 2566 0
4319 -2588 -7134 0
-359 -2629 7462 0
-3986 5834 -3999 0
267 -7386 9601 0
374 -8723 3375 0
-213 6810 725 0
8028 -1566 -4984 0
-9775 -9369 -7370 0
-3759 -6626 -3451 0
8321 -7771 -9745 0
-2661 -4482 6733 0
9762 -7541 5592 0
-1874 5359 -4554 0
8453 -9289 -8565 0
9640 5136 -1421 0
-3669 -4328 -9022 0
-4883 -2315 5736 0
-3206 -28 -3160 0
1362 -3995 -8906 0
3998 5795 4625 0
2561 7274 909 0
-4168 -2171 5273 0
8821 878 -8517 0
3683 9648 3690 0
-9500 -7 -2159 0
8985 7373 -6199 0
-842 8692 -5262 0
2733 3773 -8538 0
-7697 2365 -9864 0
-3597 1813 3272 0
-8129 -8100 3938 0
-1918 4177 -4920 0
-3737 -4063 6496 0
-5195 3365 -7307 0
-2177 7229 -5730 0
7619 9897 -4206 0
-9253 -9308 -7733 0
-6313 -8119 6574 0
1172 -9961 -936 0
-9756 -1678 -9970 0
-6934 1076 -4545 0
-7102 -9770 -3601 0
-943 -2974 3554 0
5809 -7446 -2872 0
-2893 9464 3169 0
-4900 9703 -1288 0
-7996 5829 -1979 0
5629 -7976 2625 0
-8651 7842 7150 0
828 -2627 -9506 0
7091 3443 -3749 0
4803 -8936 -2670 0
4031 -8928 -7949 0
-4337 4478 3035 0
1309 -5548 3018 0
-1967 2703 6510 0
-318 9932 -3006 0
56 -6803 7844 0
1237 6829 -8392 0
1596 -7373 9842 0
5860 5543 -6995 0
1740 7608 9229 0
6698 5741 3403 0
-9186 5865 -9146 0
6875 -4118 -8975 0
-1698 -6845 -5383 0
-8039 9896 -8327 0
1090 -1585 7451 0
8123 3433 7011 0
8230 4801 7291 0
8579 -1044 -7793 0
-536 -1822 -2110 0
5980 2504 2736 0
1104 248 5804 0
-6920 1279 8682 0
-2474 2047 -7228 0
4758 -2296 3357 0
1210 -3314 4626 0
2545 332 -6059 0
-7955 2035 -7655 0
9405 3544 1498 0
-7295 -777 5098 0
3468 -7317 1605 0
-6185 -1461 4755 0
-2320 272 9624 0
784 -9214 -44 0
4850 8152 6627 0
1105 216 -884 0
-5895 -1300 -1080 0
-2310 -6697 1264 0
-3894 8720 -7569 0
8718 3722 654 0
3229 -4353 -334 0
8909 3174 -6860 0
-2825 -6351 -1873 0
-7090 -8061 5040 0
-9561 2683 5705 0
2065 5758 -4976 0
-1589 2359 7082 0
6111 -1382 7797 0
-5488 -7352 2027 0
1563 -2278 8360 0
4080 2686 7978 0
7769 -5714 -391 0
-1251 8274 -3125 0
7266 -8895 -8129 0
-8488 2174 3192 0
-2525 6490 -9939 0
6688 9280 8111 0
-7918 -6323 -268 0
-6967 -8714 3946 0
-494 -1295 1139 0
-2470 -5866 -8478 0
2223 -5178 8364 0
-407 -8865 -8172 0
-9688 6518 -5348 0
2240 4357 2212 0
-8803 8304 -8051 0
6184 -3005 8868 0
-488 -7560 8347 0
-2191 4560 -5386 0
-3865 -3261 -823 0
916 6192 3268 0
8687 695 -4739 0
-5898 -3643 940 0
5856 -5653 9312 0
6851 6758 -7457 0
-486 -561 -8003 0
-4709 2193 -7334 0
6573 -9080 1280 0
5919 2309 -1641 0
-5898 5295 -3680 0
-3785 5320 4259 0
157 -2879 -5175 0
-9558 2938 -2484 0
1426 586 5292 0
-692 6159 -779 0
-5067 6235 3959 0
-7033 3169 -1110 0
-5788 -1257 4101 0
-757 9701 -7915 0
5602 -6906 -5779 0
3396 4604 4022 0
9245 -8262 6753 0
6823 169 1395 0
-5239 7140 -1345 0
-1514 -1173 1959 0
7842 8155 4793 0
-4827 3116 7642 0
-148 6461 9971 0
-5751 9489 3888 0
8134 1013 7299 0
8364 593 9190 0
5741 -4433 -90 0
2617 9046 -2282 0
-6497 -9234 262 0
-9062 -5313 -4163 0
3243 4833 -3366 0
-1009 -3425 -379 0
-6837 -7561 -4912 0
498 -9047 2147 0
-4178 -7752 5616 0
-547 6867 -8972 0
8737 -393 3304 0
-6378 -7062 -9557 0
5177 -2998 -4460 0
8455 9902 -6139 0
-3086 -1951 189 0
-2892 488 -6553 0
6675 -110 -6396 0
9773 -7476 2787 0
-2133 -3232 4697 0
5277 6073 3312 0
-8543 -2862 -4793 0
5487 4691 -3159 0
1472 34 1984 0
7900 3453 -8664 0
-3244 3502 -652 0
4908 5288 -4521 0
-8530 1336 -9401 0
-9396 8146 8101 0
3083 -9271 7606 0
-6622 9159 2899 0
-7700 7413 -5168 0
8632 -8030 6567 0
-4836 2780 991 0
5637 -3998 -5469 0
7132 -8293 1020 0
7849 3631 -3770 0
-159 -9004 -815 0
-9580 5207 -5913 0
5663 2477 5144 0
4098 1819 2097 0
-576 -9748 -1922 0
-8727 -1679 -6059 0
8426 539 -8574 0
5183 -2371 2144 0
4465 3343 -4273 0
-5082 -7765 1395 0
-7840 -9422 7583 0
6652 2256 -6647 0
7152 -169 -4244 0
417 -6480 -7845 0
-4818 -8624 -4895 0
-1688 6277 5335 0
7592 -3854 -1144 0
3487 -6966 -2507 0
37 -3478 2911 0
6334 -2239 9429 0
8751 -1052 -6620 0
-7747 1404 -6700 0
-682 -6056 7512 0
1481 4172 989 0
6104 -221 -5193 0
-9854 -4868 7498 0
-2893 1966 -2531 0
1318 -8387 3803 0
2350 8447 -4445 0
2884 8811 3846 0
-5442 -5607 3848 0
-2586 1946 1791 0
1026 -7310 -6840 0
-5696 -7421 -729 0
8857 3382 -2196 0
6950 -1191 1999 0
3635 310 6450 0
2110 -6601 4030 0
-5644 -4856 9827 0
8353 3256 7620 0
7827 -9844 -53 0
6748 -6936 -1856 0
-6560 -4440 -9479 0
-5119 -164 6372 0
4116 -2790 -3978 0
1010 -171 3083 0
-9137 -3983 8295 0
9579 -5273 -973 0
-2116 7786 -1091 0
2318 -5492 -4607 0
-8361 6657 -8355 0
-5818 2634 6687 0
-6612 56 -8655 0
5816 5040 1463 0
-2175 1951 2056 0
-2858 -1139 -2210 0
-4424 4708 1629 0
-5643 764 7522 0
8933 -3458 4235 0
6908 -6600 -6233 0
-5974 -599 9644 0
2500 -1093 -3039 0
6000 1159 -1985 0
-433 -6465 951 0
-3570 5181 -2612 0
-4053 7024 9479 0
-199 8835 6857 0
-7021 3425 5625 0
6333 2293 -196 0
8867 2024 4942 0
9875 -1484 734 0
2200 -8129 8825 0
8613 -2161 6407 0
7073 4452 -7115 0
-6856 8103 3893 0
72 -7001 3538 0
2079 -1669 -9255 0
-1009 9911 9283 0
-8683 -1105 9459 0
-4647 9635 1085 0
-791 4241 340 0
4006 6871 5374 0
5398 -4813 -8271 0
8963 752 7314 0
1018 -5789 7172 0
414 -5091 -2584 0
-889 -6002 7537 0
-8469 8621 -6422 0
-3239 5244 8524 0
448 6564 4566 0
7505 -1846 4632 0
1951 -4968 -5665 0
-4493 9767 5572 0
8565 -1076 6233 0
-5125 -3243 -8607 0
-4092 -4297 -1906 0
7357 7 -1705 0
4039 -2448 -1947 0
4184 7726 -9758 0
9504 3307 -4511 0
2094 7796 4665 0
8274 3816 -847 0
-402 7886 -3614 0
-7363 -8769 7714 0
-6581 -524 -1713 0
-7511 4416 4771 0
-7165 -6619 3871 0
-2528 -3280 9672 0
-8363 2089 1101 0
-9967 -3452 7321 0
-9775 7402 -4383 0
-3610 8210 9064 0
9908 1030 3239 0
-8365 531 -6137 0
8764 4620 -8924 0
-3744 -9893 1253 0
-5048 7959 -3780 0
-1320 1969 2409 0
1797 -3753 -6087 0
4550 -8180 4709 0
1594 -2705 5569 0
1557 -504 -8144 0
6373 -2537 -5861 0
-8046 -762 -7287 0
3968 2689 4418 0
597 8009 1933 0
-4475 7042 -8872 0
8026 -8800 6322 0
-1829 3325 9590 0
-1604 4425 -4139 0
939 4874 3995 0
4097 189 8931 0
5810 6666 -2708 0
-6675 3638 3907 0
5050 -642 4308 0
8045 -5931 7002 0
-3016 -8983 6510 0
7552 22 5548 0
-6202 -3697 4397 0
6477 3342 1970 0
-9787 -1325 3647 0
6212 5674 -4926 0
-127 6046 110 0
1135 8777 6302 0
-8620 8461 1706 0
-5596 748 1921 0
-5385 -9510 -4720 0
-8025 8295 -3204 0
5619 8846 -174 0
-2291 9303 -5450 0
8929 3900 -6989 0
-186 7005 2292 0
5426 -3875 6440 0
-8352 9263 407 0
4361 -4032 8757 0
-1726 -9238 3422 0
-2088 474 -5785 0
-6392 -7518 -5393 0
7269 -7929 9441 0
-2777 8812 4377 0
-2951 -9036 -7042 0
1676 -1419 8756 0
9053 -9163 7456 0
-1878 -7608 -2938 0
-5546 9108 -6591 0
7138 5307 1214 0
-9936 -6846 361 0
3004 -9640 6041 0
5553 -4189 744 0
-3762 -7310 -417 0
-5242 8638 -5404 0
4102 -8133 -6804 0
-4768 -789 -6973 0
-3602 5675 3904 0
5784 9829 -8141 0
8442 1026 -4835 0
-6257 -9940 9672 0
947 -1940 -6737 0
1210 -1571 277 0
-5972 -2422 -6693 0
-7177 5690 -2468 0
-1244 3005 2471 0
1623 -6675 2261 0
3511 -633 8257 0
-940 -6141 8647 0
-9359 -7444 -3411 0
-7829 2342 -7992 0
304 -3339 -6884 0
8925 4473 -7670 0
8769 -649 9990 0
2632 -8977 -7040 0
-8340 4041 -7128 0
-8094 7766 9388 0
9051 7291 9547 0
7399 -175 1936 0
363 -7273 2312 0
447 -6947 -4562 0
-3437 -8313 7698 0
-8413 9397 -3685 0
-2671 -2412 -6397 0
4782 2143 -9063 0
-3630 1637 -6208 0
7009 -7920 7221 0
-6272 -2391 -9418 0
-3632 8832 7306 0
-4267 -7608 243 0
6037 2980 -628 0
7285 -3691 -287 0
-5183 2521 4256 0
-7126 -308 2276 0
-5130 -2800 6059 0
9625 -2374 2928 0
1885 -9392 3065 0
3795 1340 -355 0
5588 -301 9597 0
-9918 6038 -6864 0
4083 -1419 -4932 0
2591 5064 -7157 0
-2469 -6880 -9103 0
-4657 -8574 4907 0
-8331 4804 -8497 0
7248 9921 2725 0
240 8870 -3619 0
2059 5828 -3001 0
-3325 -2109 -4587 0
-7443 3685 6204 0
9212 -5708 -9385 0
-5625 -7820 834 0
8499 -3456 -1151 0
4306 7859 -4767 0
7325 -8670 -5318 0
9879 -8987 -7981 0
-7969 -5075 -6991 0
5969 -9809 8463 0
-5582 -8649 -8908 0
-648 -4755 -7696 0
9420 -5547 -3567 0
9058 8956 -1655 0
-1659 4285 -3523 0
4836 8343 -9792 0
2632 3612 5607 0
-1496 -4985 -1137 0
2673 -5850 -8598 0
9402 5381 -2713 0
-72 -3683 -2099 0
-2156 -2114 -94 0
-7842 -5036 4947 0
9264 3614 5016 0
-3621 3248 -1465 0
2863 2791 3627 0
-894 3079 3664 0
-6180 5778 -3576 0
802 1314 -8772 0
3952 -4881 -3932 0
-7533 5776 6648 0
-1214 -9711 9278 0
-6505 1459 -5348 0
-3520 -358 -253 0
7253 -1895 -8468 0
5010 -6158 -6650 0
8418 6584 -8663 0
-1211 5094 3442 0
5811 -4638 6972 0
9098 3845 7638 0
-288 3565 8851 0
9595 8334 5789 0
3973 -5093 4207 0
-4289 -6521 9350 0
7425 218 -2406 0
-2042 8183 -1081 0
5681 6110 5521 0
7247 -8544 -3890 0
-9351 -3719 3288 0
-1124 -6035 7765 0
8299 2493 371 0
-5124 1151 2289 0
-2353 6499 114 0
-5420 -2356 5099 0
-1946 8445 5323 0
-8455 5729 -4866 0
2326 -9061 7223 0
9501 -7536 1640 0
-8836 -4784 -2637 0
9534 -5546 -1984 0
8692 -7150 -7833 0
7105 4364 -830 0
6518 8773 -9971 0
-880 8152 8390 0
1728 1903 9459 0
6961 -1294 7398 0
1000 -2363 5674 0
-5615 5972 2631 0
-486 -9282 5017 0
-8159 -3608 9451 0
2560 6511 8020 0
-6650 5186 -8849 0
-1497 -2009 6558 0
-9608 -8508 1187 0
4924 -8198 5939 0
1446 9168 -8699 0
-569 3219 8976 0
2366 -4997 -8914 0
5560 3871 -9333 0
395 -6426 94 0
2738 5065 -3240 0
-3747 2907 -3428 0
27 1361 -2551 0
-5950 -3168 -5323 0
-8253 -4168 -8182 0
-632 8834 -2464 0
3601 2177 -4557 0
-3556 -6277 7897 0
-1923 -931 -7940 0
-9326 5838 -4293 0
1809 6922 4939 0
-9184 -8800 8468 0
-410 2152 3124 0
6171 1858 6381 0
8547 -1947 -9838 0
7986 -7770 574 0
3186 -7761 -6833 0
4811 5800 4365 0
8592 -9626 6124 0
-215 -337 5070 0
-8438 -6482 -1730 0
-4118 6004 -3144 0
4457 -4412 1080 0
6964 -1629 5535 0
-9612 -606 5653 0
1190 -8313 -1340 0
8047 -3611 426 0
6564 3185 3928 0
4916 2307 8226 0
-973 7460 -4240 0
-345 -9633 -7145 0
7162 -3993 -1276 0
6111 -996 8173 0
8127 -3694 9560 0
6210 7326 2334 0
107 -1724 3380 0
2391 1707 4650 0
518 5776 -3047 0
-7163 6105 13 0
6943 1458 -7379 0
9023 2249 8636 0
3895 9334 7882 0
8934 9882 1148 0
-6935 1688 82 0
2117 9744 2447 0
7089 -8674 -9970 0
1137 -5862 7777 0
-1763 1408 -8494 0
7121 -8479 -6355 0
-4683 2924 5012 0
9639 5252 -2815 0
-5937 -8068 -2051 0
3738 -9277 -777 0
887 389 1941 0
-1543 -7388 5693 0
9589 -3875 3450 0
-8534 -1264 -5823 0
-2443 7551 7364 0
2708 7950 -706 0
1846 -970 8318 0
-1391 -3816 -2128 0
5596 6312 9949 0
-7084 414 8272 0
-8839 9021 -6483 0
-4451 1109 9018 0
-293 2697 -597 0
4385 6756 6138 0
8477 3301 -1178 0
4689 3204 4819 0
-5727 -6858 -8846 0
6923 -8992 -2606 0
4037 -8414 -910 0
-1057 9055 -6604 0
2936 -7747 -7550 0
428 2446 7713 0
5502 924 -7553 0
-2137 -1328 4535 0
-9217 9889 -3934 0
-5687 -8428 -8819 0
18 3990 -4208 0
5535 -3351 8347 0
4788 825 -3378 0
4891 -5445 1173 0
-4944 -777 9635 0
-5597 -3680 -6370 0
6845 -4082 6206 0
-600 -6184 -7763 0
2363 -3512 8489 0
-5737 7552 3179 0
-933 -4174 9474 0
-8923 555 -7175 0
-5488 8284 -9285 0
8520 5446 -5709 0
3532 1603 3522 0
-30 1018 3328 0
-8278 -3519 4833 0
-2083 32 -3872 0
-5490 4236 187 0
-3109 -9933 -4947 0
5171 -6156 5592 0
1925 1779 -1012 0
-7184 9124 5888 0
973 -187 -337 0
-8874 -7541 -7561 0
-59 8100 9243 0
-3427 -4963 -5590 0
6453 -4336 9386 0
-1040 -3671 -2223 0
7415 -9370 2655 0
9971 -1155 -4501 0
-3930 2441 -1900 0
-7104 -1668 7344 0
-3457 -8872 5367 0
8736 -9150 -1650 0
-3836 -8590 6688 0
4455 8392 -8988 0
-7873 7430 864 0
-2982 1709 9512 0
-6966 -9696 3990 0
-8915 -321 9101 0
-760 -5449 9053 0
-3567 -8091 -7514 0
-2692 1897 1305 0
3806 7926 8333 0
-7961 8676 8108 0
-7205 7835 -5443 0
-9800 6490 -9859 0
-6226 8713 1152 0
806 3765 4195 0
-2714 -4061 -8075 0
-7576 -891 -6813 0
5574 -9589 4349 0
-2287 -5261 691 0
-272 -2153 -4819 0
3377 7670 -2457 0
-986 -8143 -5210 0
5496 130 -4614 0
-1656 9992 6934 0
-7394 -5976 2931 0
-4315 4467 6495 0
6000 3343 -9968 0
-4298 -8054 -3933 0
-6798 -1368 -5007 0
-6761 -5752 2825 0
9020 -657 -1002 0
-8180 -6436 -7286 0
1462 1405 -3523 0
-8995 -7774 7798 0
-9137 9599 -9656 0
3543 -7052 3464 0
-2107 3126 8311 0
-5262 2393 3313 0
-1170 2876 9955 0
-4114 977 4781 0
2681 341 5146 0
9719 -8312 3034 0
-3030 -4917 -8608 0
-6986 9597 9671 0
-2348 9331 -5328 0
-5798 -3325 -3252 0
-842 1314 8280 0
-7707 -1603 4832 0
-614 -1972 -6506 0
8682 -5566 1537 0
7939 3429 3773 0
-1053 -1177 -1260 0
-4233 -7834 -5803 0
-6169 -6047 1208 0
2883 1811 2916 0
-4220 7964 -3527 0
-173 -6593 867 0
1030 3356 3972 0
6104 4590 9357 0
-5176 8843 -8061 0
-9636 -6550 5894 0
7832 -5893 3961 0
8244 -7344 6352 0
675 5099 3005 0
-1723 -6894 2971 0
-1619 -7482 -512 0
-9818 -5995 7318 0
1834 3625 -6684 0
1835 -9849 6726 0
6760 1487 -8144 0
-9046 -8278 2586 0
9190 3307 7673 0
-2722 -5177 2412 0
-5108 -7123 7244 0
-8030 4804 -7127 0
2596 827 -8064 0
-2626 -3780 5408 0
-5901 -3914 -811 0
1803 -2946 -1102 0
-795 7863 -1686 0
9559 -6606 5079 0
2726 -9193 4410 0
8666 8172 3019 0
372 -5037 1333 0
8048 -1695 -6187 0
-306 -5210 3709 0
7484 -8774 1567 0
3126 -2780 455 0
-3701 2646 -8629 0
8318 4933 1876 0
-4131 8517 -8796 0
-6796 -1190 -218 0
-2338 3074 -4550 0
2497 -1429 1128 0
-5161 -9532 3717 0
-6821 8784 5109 0
7361 -4150 -2851 0
4786 6663 3280 0
-1451 3528 -587 0
-7235 -8101 6199 0
-7235 -5797 6992 0
-2475 9761 -9820 0
7877 -3146 8406 0
-7517 -5953 736 0
-8556 -1336 7368 0
2593 379 -8651 0
-8693 -9728 -2734 0
8002 -7138 2924 0
4893 -3273 8240 0
271 5828 9830 0
-5298 6340 -3463 0
-5154 1780 -7170 0
-2591 8517 -4434 0
8427 2455 7328 0
9412 -6662 8393 0
3368 -524 3194 0
-1764 5217 9395 0
7161 -8103 -4113 0
-9371 -6916 4052 0
-1554 9967 -9044 0
-3554 -706 -8666 0
-4006 -1496 728 0
4371 4659 -2189 0
-8227 -7046 -4709 0
-8274 -5102 -6715 0
-1656 4249 5099 0
6857 2967 8041 0
474 -5942 -6478 0
-9237 497 7319 0
-9358 3871 5147 0
-4286 -5194 3904 0
-7580 5526 -2380 0
-2936 -1845 2420 0
-5293 -3520 2972 0
8152 -7641 -6120 0
-3232 -3928 3595 0
-9808 -9503 -9089 0
9662 -1563 242 0
8286 -3267 -8954 0
7596 -7414 6533 0
-3513 7264 2069 0
-7283 -9090 -6763 0
4464 2857 8310 0
-183 6271 -4796 0
9378 6342 -4091 0
5962 5601 -9729 0
-3748 -2685 6143 0
-6863 -1816 -3423 0
-4415 -3177 -8449 0
3889 2588 -1758 0
8901 1876 631 0
-6813 2087 -5572 0
-5097 -4564 -1830 0
-1235 6082 -8686 0
-2616 -9663 -150 0
1015 -9691 -1381 0
761 -6 3230 0
-8420 5730 -8281 0
6425 -9831 9347 0
639 4133 1999 0
-4080 -3525 -5904 0
5127 7001 -3772 0
7906 -285 8305 0
-5240 4307 4195 0
-7056 -5465 -2140 0
4054 -4567 4785 0
5794 -8450 -7334 0
-2176 -1925 4609 0
-1339 -1017 6615 0
-5027 -8740 -7733 0
9393 -5333 -1931 0
-9789 7861 338 0
-5907 6435 69 0
-3915 6973 -791 0
386 1693 1215 0
-7604 -8870 -4831 0
7414 4024 -6348 0
-902 -9906 4743 0
5861 -6269 5500 0
2288 -5931 6614 0
7802 3611 5704 0
7886 -2203 -7592 0
400 -537 -6118 0
-1357 838 -9770 0
4268 6494 -2708 0
4037 -2741 6950 0
8243 9367 -5535 0
-1345 -1283 -2668 0
5855 -1354 -2948 0
5513 3465 4663 0
8884 -6673 -667 0
-2252 -4333 5045 0
-7148 -4666 -7996 0
4655 -3937 -1437 0
5287 4575 6298 0
3193 -6989 7218 0
6665 -6840 2288 0
-5390 2417 4677 0
9596 -23 7336 0
-4544 -5889 -2035 0
9110 4899 -5641 0
-3181 -5709 3192 0
3123 -3307 -5293 0
-4142 -9643 7603 0
4846 5530 7906 0
-4194 7330 3793 0
3640 7229 543 0
-1324 5687 -1024 0
8805 -1625 -5617 0
-3864 301 5530 0
7166 3 -3613 0
1720 582 2617 0
7118 -9214 -8655 0
-6509 -2052 5065 0
2852 -8810 -5906 0
5552 -1117 4102 0
6722 -1728 4489 0
-97 6303 4614 0
-7623 -4544 -8538 0
6724 1684 -2708 0
-580 3801 -2750 0
5979 9957 -1732 0
-9102 -3864 -9762 0
-6869 -3482 -9692 0
-9908 4020 4811 0
5656 -4946 -1138 0
-2677 4053 -7899 0
8067 -5187 2187 0
7240 5063 -9263 0
3796 -1885 -1315 0
7061 2685 -6191 0
6532 -6848 -7704 0
-9981 -8357 -3640 0
3589 6775 -3140 0
-381 3095 -5799 0
-1677 6082 9463 0
8896 -2837 -5808 0
589 6683 2109 0
8165 -185 8996 0
8770 -5950 9615 0
6947 -6273 2937 0
7607 -2984 -5480 0
-6374 5577 2769 0
748 -6461 5792 0
1735 -4942 1036 0
979 4798 5399 0
2220 8178 4284 0
9967 3904 -1941 0
-6770 -4767 6940 0
1113 -5799 4958 0
-9148 -6140 -2273 0
2300 8488 -1015 0
4197 6790 3778 0
5060 6750 6248 0
7290 7175 7299 0
-2869 -2196 3723 0
1875 437 819 0
7682 8872 -7117 0
-9383 6701 -9104 0
1910 -1994 -3199 0
9395 239 -9738 0
-1136 8959 -5942 0
-5441 3882 -8502 0
-2203 3190 -2975 0
3324 3066 -3590 0
-7062 5916 -2927 0
-9070 4053 -7444 0
7758 -6592 -2020 0
8792 -1515 -848 0
-8646 -7928 -8589 0
7344 2174 -151 0
9360 -4525 4018 0
5650 -1949 -2627 0
2308 911 -1203 0
-1629 4006 3620 0
8184 -271 7476 0
7923 -5371 -2134 0
-2884 7733 1214 0
5804 -2444 5490 0
-242 -6360 -8002 0
-9718 -4144 -521 0
-61 4861 -4327 0
780 -8330 4308 0
6945 -378 -2283 0
-8310 -4686 3156 0
-2711 -1533 -9737 0
1316 3387 5661 0
-9160 378 9939 0
-1557 -5800 5471 0
-3306 7332 7776 0
8930 884 -9360 0
-3180 5104 -5333 0
-4077 6169 5125 0
4672 -8858 1155 0
5613 4191 -885 0
4931 -7516 7792 0
2238 -3383 1436 0
4699 1860 -5955 0
-6095 -9976 -8339 0
2869 -8212 5553 0
8474 -1830 -8484 0
-3476 -8764 -9118 0
-2034 -9536 -8952 0
4922 -7458 2074 0
222 1526 -6715 0
9376 -1014 -4612 0
-6562 -6055 5499 0
2310 3822 -6695 0
-9520 6663 -124 0
-8216 -9323 8686 0
321 6641 985 0
905 -7739 -5737 0
6536 -7206 7425 0
-5883 -7948 -1427 0
-3276 8230 2249 0
8405 -8459 -5818 0
3660 3450 6134 0
-2376 2563 930 0
1084 7265 1508 0
2419 747 6764 0
-8310 9794 7018 0
-4241 9468 -2857 0
-169 793 6277 0
-9042 3648 4275 0
3306 7356 3551 0
-9423 -1285 6484 0
3551 2395 -5050 0
2136 -2892 3392 0
-6536 -5786 -3338 0
-9081 3902 3633 0
-6362 653 543 0
-4971 -9058 3298 0
-3866 -8172 -7918 0
775 3836 9384 0
-6846 2144 7911 0
1265 -6031 -8692 0
-9415 -4032 4556 0
-6678 -8795 4194 0
246 5814 9719 0
-874 6346 -5875 0
52 9284 -111 0
-2738 -8315 7872 0
-6366 3268 -9131 0
5619 -7051 -9720 0
3361 -8111 -9036 0
-1860 -1834 -4482 0
6421 2500 5498 0
281 -9715 5759 0
472 3722 2236 0
-2031 -1694 1178 0
6612 -678 6154 0
1000 4083 -9939 0
-4233 47 -4930 0
-1248 9338 4208 0
-3028 7164 3661 0
6626 -6429 -6222 0
-5426 -4300 -3637 0
9289 1352 1814 0
-7149 5692 1496 0
-2947 5383 -5147 0
5628 -3168 1186 0
-1575 -3864 -9115 0
3207 -3474 5753 0
-7910 7825 -4905 0
-1409 3724 6231 0
-8748 9324 -8899 0
2318 -7901 -7979 0
-6657 1927 8716 0
-6433 7469 6279 0
8859 -9933 -1888 0
3969 -3894 -5466 0
9495 -3673 -164 0
-2358 -5345 -2341 0
-2413 3512 2969 0
5811 -4431 -8119 0
-8550 3807 9177 0
6337 -6717 6410 0
6069 -2174 3 0
6260 -4277 -2482 0
-5835 -9123 -6017 0
8940 -1033 -8511 0
8070 3763 -7418 0
9269 -312 -9960 0
-2321 427 -756 0
-6070 7443 -565 0
2411 2715 5339 0
918 6709 4367 0
-4538 2737 -4123 0
-3282 -881 -5208 0
-6238 -3607 -4120 0
287 -9760 -33 0
-4691 8871 -105 0
8719 -140 4121 0
8716 -2113 -2305 0
878 7504 -8103 0
924 -5647 -944 0
2393 -2443 3440 0
8451 -9678 -6426 0
454 2172 9000 0
-9898 1497 5123 0
-5294 -6604 -9110 0
261 -7334 441 0
2091 -2731 9336 0
-9845 59 -4348 0
5297 -9666 3404 0
9090 -1813 -3877 0
-358 -1573 8889 0
-4040 -3897 -6059 0
8994 5018 -7188 0
-3846 5194 9827 0
5070 -7015 -9800 0
7417 -9025 9030 0
-9243 6758 9054 0
-7883 -2427 8682 0
8205 -4686 -1965 0
-9344 -860 -2563 0
-2124 4634 8866 0
1134 4611 7497 0
-6313 6545 8720 0
-8630 -6246 1938 0
-7229 -6225 1931 0
4754 3457 4226 0
-5712 -1307 1990 0
4234 -9951 2779 0
4277 4925 -9401 0
-9584 -2018 8723 0
5027 -863 8237 0
-6391 -669 -5914 0
3245 -1033 1115 0
4519 -2998 -6244 0
4135 -2086 -9998 0
-5395 9971 -365 0
-1366 -5783 8728 0
8266 -3001 7803 0
881 9455 2909 0
9871 -9678 9509 0
8692 3656 8394 0
2097 5592 4430 0
922 7386 5765 0
1095 8859 2543 0
5714 4035 -1829 0
8101 1773 7675 0
3057 -263 3876 0
-9460 4480 724 0
5360 -4355 -6745 0
91 3254 7838 0
-9862 9494 -1717 0
-6081 1694 1372 0
4816 -2567 2473 0
-5346 4041 6850 0
-531 9061 -1215 0
2073 3309 7752 0
-4809 -4101 1698 0
-9547 -2887 -7574 0
-1316 2633 -8421 0
-7183 -454 6478 0
-843 -8425 -6858 0
-9042 2680 4751 0
-6514 9180 -8361 0
7346 -1240 216 0
-9379 8598 6136 0
3004 -8484 2295 0
6278 -4458 5729 0
3976 -4161 6123 0
8830 -8286 9958 0
-5381 4248 -1925 0
1146 -685 7418 0
-2885 -4335 8212 0
8896 8564 -1777 0
-1159 -2459 -7675 0
-1539 -9307 -2678 0
-1816 -5266 3630 0
-9654 -8716 2699 0
-4856 583 2591 0
-9688 3907 9528 0
6817 856 3112 0
957 -3438 -5695 0
-889 3319 -9331 0
-3139 5984 -7124 0
-6908 7173 8661 0
5123 -8691 2383 0
138 -4029 3220 0
5316 -4557 8128 0
-9742 -9330 -9390 0
2039 -4740 2670 0
-2226 967 7346 0
-5435 -8498 -3308 0
-8457 -2128 -1463 0
9640 -804 4159 0
-2569 -7272 7456 0
9280 -4415 9330 0
5827 -5102 -970 0
-8234 6116 -5591 0
5514 -148 408 0
-5109 1091 5899 0
-1151 7646 3032 0
-7005 -2794 -2895 0
-6313 3601 3017 0
6242 2682 -9748 0
-5767 2592 4075 0
2556 -6071 5974 0
3530 -1432 5216 0
-5817 1915 -6508 0
7318 7653 5558 0
305 7157 -3350 0
7262 -473 7686 0
5884 5699 2437 0
1280 7255 -4460 0
8511 -8758 1371 0
-4988 756 -3035 0
-3663 1046 -7587 0
-5362 7357 -1300 0
2978 -3587 -9394 0
-6806 924 -9141 0
-3220 -5707 4558 0
4497 6878 5400 0
-1535 -5550 -8634 0
2495 2284 -4088 0
-9442 -134 4811 0
7297 8213 -478 0
-4208 9681 6008 0
-2929 1338 8250 0
2569 8464 -2952 0
-1109 -7910 -5095 0
-9460 -5574 6687 0
3659 9776 -5244 0
-1708 -813 -6105 0
853 7924 5022 0
3403 3052 -5154 0
-2545 6437 449 0
-7352 -7259 -7104 0
5768 9474 6442 0
-3044 -5108 2400 0
7581 -7230 292 0
4777 -8908 8219 0
4139 -4015 -4095 0
2955 3308 8798 0
8609 -2493 6753 0
6239 861 -3863 0
7758 7367 7496 0
4789 -4249 5108 0
5317 8536 9156 0
4994 -4943 -3350 0
-2289 -464 71 0
5359 7482 -2477 0
5400 3275 -4239 0
-6189 7645 -9179 0
1644 1649 -6503 0
3304 501 9411 0
-9348 4047 7851 0
3281 -6592 8953 0
-277 9522 -6057 0
5421 5725 6509 0
2849 347 1492 0
3920 1718 8283 0
-3753 -1340 8019 0
-4566 -2968 4880 0
9788 -5594 -2771 0
4929 -8682 -8787 0
3553 5415 -2562 0
1278 -4375 -1601 0
-4463 9663 -1022 0
-5225 3350 -5419 0
623 -3042 -3058 0
1742 -9790 5506 0
-4860 -7890 -5994 0
6486 7155 -9364 0
9415 -9558 -3545 0
2035 -1870 2830 0
-7839 -1381 7753 0
6900 -9146 8502 0
7824 -7781 5381 0
4717 9018 5665 0
-1624 -4011 -8757 0
-533 -731 6311 0
8174 7642 -8863 0
-9046 5498 -2378 0
-7609 -5000 8841 0
3048 436 -1327 0
1520 623 -9013 0
4585 -83 -8172 0
-46 -4538 -1769 0
-3129 3451 -2197 0
6487 -8661 8047 0
59 8942 -2375 0
-1614 6956 4010 0
5768 9935 -9972 0
6540 3870 657 0
8839 7260 -3610 0
-3804 -6974 9777 0
3867 -3534 600 0
7096 -2464 -5472 0
3861 -3330 2163 0
-8480 -8753 3697 0
-9824 242 9165 0
5930 8939 4005 0
-7998 6503 7637 0
7564 -3467 -9183 0
7272 788 1836 0
1981 -1512 2631 0
1368 -8333 -3724 0
729 -4087 -1916 0
1430 2203 840 0
4175 1029 6817 0
-8655 1053 6154 0
9553 1527 -7746 0
-2318 7164 3250 0
-3474 -19 1833 0
7585 6745 -1533 0
-254 3932 2100 0
4364 -7337 -3386 0
1365 6877 -8152 0
-5119 -3962 3228 0
-6515 1525 5552 0
3748 -4677 -8106 0
-1643 -7523 -5823 0
9205 1166 -9170 0
-5437 -5519 4388 0
-4416 7926 -968 0
-4288 -4380 1334 0
-3683 1986 56 0
5347 -3281 -9983 0
3780 9732 -87 0
5673 -3269 4596 0
4439 8338 3410 0
5564 9143 -8374 0
-9498 -2663 -5803 0
9497 6332 -506 0
6406 5259 3900 0
-5857 7471 2145 0
-9588 -2624 6199 0
-6782 6615 -3248 0
654 5742 -2708 0
-400 -9846 -8151 0
6424 -6082 1737 0
-7648 1599 8264 0
6300 2935 9715 0
7343 -4124 2731 0
3632 -9798 -4683 0
-124 2104 -6768 0
-5361 -2100 7774 0
9843 3613 8303 0
5207 4158 3927 0
-9628 4923 -4043 0
8727 1532 -7009 0
8625 7399 826 0
-3726 -8780 1859 0
-7757 -4782 -2580 0
-2606 7099 470 0
-2816 -3239 -1048 0
2147 -931 -5649 0
-9998 2877 -1549 0
-538 8270 7533 0
3022 -3168 -333 0
2151 -8779 3370 0
7675 3898 6265 0
4988 -1298 2108 0
-9528 -6011 -2059 0
-6741 -808 6854 0
5704 5734 2744 0
9409 6349 -5695 0
6001 -4967 812 0
-6384 -5475 7480 0
7552 -3436 5347 0
-2890 701 7907 0
-9659 1817 -5714 0
9967 4140 6226 0
-7099 -809 906 0
-1135 86 3337 0
3372 9046 -5438 0
-4118 3024 8174 0
8733 2150 -7043 0
-6250 -4193 -2974 0
-8100 -5702 -5778 0
-6812 8693 9394 0
8887 5625 -1925 0
-6108 -2780 7473 0
8224 1645 7630 0
-2045 2303 8028 0
-4739 -4332 7559 0
-3170 -7459 -2523 0
2828 -1799 8083 0
-8687 -1059 -6310 0
3656 1569 6486 0
6881 -7900 7710 0
-3653 -7568 -8 0
5466 8439 -4935 0
-7194 1536 -1179 0
-9726 2259 8105 0
-8669 2329 5028 0
-6186 -5365 2587 0
-6826 1203 -1075 0
7522 9324 -690 0
-4163 1037 5212 0
-8506 -8348 6056 0
8076 -3431 4955 0
-1183 2059 -2867 0
6862 -3167 -4302 0
976 5636 -429 0
8691 5599 9610 0
-8951 -7511 -1840 0
804 4249 -7454 0
3401 9486 8725 0
2846 -3881 -6060 0
3199 4104 -6178 0
8645 8092 -7560 0
-4907 -6377 -5121 0
9091 4532 480 0
-1184 -807 -7365 0
-9869 -5625 763 0
-786 1126 -1604 0
-2249 4826 9556 0
-4048 -3947 5613 0
-808 -9177 1292 0
-1142 1638 -3890 0
-8598 127 -1170 0
6866 -3282 -2891 0
-5769 -1145 5495 0
8464 8630 4469 0
5734 -7733 6908 0
3295 4596 -1142 0
-2563 8350 -1131 0
3592 -8761 -2995 0
742 9104 -2323 0
-9552 5147 654 0
4117 -42 -8773 0
481 -7443 -7533 0
4059 1821 9213 0
8949 -5477 -6079 0
4856 4287 2889 0
7169 6633 -2003 0
676 -9282 -680 0
-8297 -8479 -2185 0
-4569 -4516 7865 0
-8982 3043 -1755 0
8204 -4687 145 0
-9174 1399 3525 0
7740 5775 3159 0
6274 -8705 7083 0
874 -3371 5438 0
5238 -9705 -5861 0
5137 -729 1058 0
1944 9503 4184 0
-923 6889 -7783 0
-2240 -4048 162 0
-8919 7306 5396 0
6861 7609 6427 0
2640 -9037 -9123 0
-4600 -8234 -6946 0
7153 -8679 9683 0
9944 6126 343 0
-2655 -1992 -6040 0
2043 9035 -255 0
-9359 7294 -7143 0
-7019 7807 7223 0
3141 7292 -8214 0
5112 -5481 9744 0
3119 -6107 -8789 0
-5720 -673 6264 0
5448 -2017 -3855 0
-4234 9305 -1209 0
2605 -4261 -669 0
-9635 8042 -7756 0
-1327 498 -8871 0
7708 3547 -5876 0
7091 -3982 -2511 0
-3911 974 -383 0
9759 7886 6056 0
-3666 6 -26 0
-1017 -6630 -8685 0
7041 -3484 3249 0
8921 689 1394 0
1521 2884 -1060 0
4438 -2950 7380 0
-6940 5348 -790 0
2616 3102 6975 0
3452 5316 9259 0
5776 -8237 -5442 0
-3569 -3206 2561 0
-4861 8149 -2299 0
6569 518 753 0
-6409 3023 -6104 0
9000 5353 2638 0
2816 -5571 -9064 0
9014 7839 3291 0
-3101 -3220 -1274 0
-3970 -4241 9498 0
-48 5652 -8148 0
7011 9526 -5946 0
-8427 -5623 2088 0
-3951 -565 9961 0
1397 -3889 -715 0
1749 1227 -6020 0
-9833 7417 -6744 0
1808 -8861 -520 0
-6135 8756 -7734 0
5042 4056 3100 0
4481 -9333 -7809 0
4478 8180 8578 0
-1704 4093 3870 0
-6465 -3710 1729 0
-8163 -1799 -1589 0
-359 4969 877 0
6547 -1471 -1265 0
-7120 9409 9367 0
-6219 -24 -1867 0
-8242 662 -4820 0
5156 -3526 5028 0
-7351 -6301 5390 0
4338 -9507 6343 0
9166 6795 9667 0
3441 -7923 8810 0
-2812 5276 8245 0
-7640 -8555 -7623 0
5386 -5245 -1700 0
4644 -8179 9765 0
-4002 9522 -2115 0
2301 7860 3341 0
-9780 -7324 -9789 0
3720 -445 915 0
2908 7622 -5880 0
7318 885 2960 0
5510 5431 2424 0
9360 2561 6772 0
-9675 -4420 -1757 0
-3267 -6645 3773 0
7225 2395 -8673 0
6864 4360 -145 0
4836 -3174 -9572 0
-6906 -2705 4399 0
-6648 -4019 -4191 0
2324 4978 -1391 0
4740 925 3447 0
-648 -7095 -8022 0
-4785 439 -1979 0
-9576 -8691 -3228 0
8696 6359 8685 0
8719 5153 6315 0
-6148 3176 6645 0
-1640 -344 1341 0
8820 8932 3952 0
-2325 -1443 -8594 0
9603 2082 4454 0
6794 8273 -572 0
-1652 -697 -626 0
8319 9986 -7707 0
538 9740 -7443 0
-3356 -4153 -1492 0
6054 -9066 -1462 0
-5402 3240 -9361 0
-1332 6690 3500 0
-5741 674 570 0
8346 9808 -7890 0
-6486 -2917 5241 0
9530 5945 4603 0
8482 7343 8299 0
6622 -6649 8675 0
58 -6281 -3349 0
-5675 8620 5513 0
-504 -8532 -8502 0
-867 -2665 -6550 0
8562 8424 1606 0
-5906 513 -8394 0
-505 -630 -4636 0
5166 -9937 -5065 0
9480 6847 -5955 0
-6073 8647 -3405 0
-8779 9401 9915 0
-4683 -8309 -9234 0
6925 -7881 -5177 0
7661 -3069 9502 0
-6993 1926 -694 0
-5898 -3683 2938 0
2158 -5675 -4437 0
-5751 -7304 -2187 0
6927 8654 6759 0
9310 -2964 -6732 0
6475 5812 1530 0
-1714 -3543 5518 0
5310 3341 5785 0
7569 7893 3030 0
4319 -1641 9215 0
-4058 -584 -3512 0
3576 5492 415 0
2016 -5306 -9203 0
-1378 -5481 -4786 0
-7843 -3664 3937 0
2380 -9977 -7906 0
-6957 -7558 -1945 0
2386 4708 4627 0
4179 -5309 -6996 0
501 -9404 3196 0
7217 -4657 1109 0
-3955 8135 -6314 0
615 2876 -4982 0
2948 3622 3268 0
7500 4871 -8394 0
-2531 -4697 7456 0
6764 9074 4001 0
-3825 3476 4578 0
9437 -3498 9882 0
6009 2504 -3364 0
-8903 6703 -7936 0
-621 2137 7718 0
-9979 4309 9234 0
-1365 -8748 2407 0
-7196 4545 -860 0
-5988 -8201 -1932 0
453 1171 -6595 0
-4877 1147 4279 0
-142 -7439 2600 0
-2037 9236 -1977 0
-4456 862 -9361 0
-9952 -1792 2146 0
-8362 7741 -4322 0
6131 -4832 -2064 0
2269 -3816 -6163 0
8936 3094 8930 0
-2462 8878 8315 0
-7123 -655 6044 0
4287 -2645 2412 0
6496 6859 5056 0
4770 -1226 -7195 0
-5435 7071 925 0
8585 3365 -6563 0
9516 -2766 -5311 0
1589 5686 3552 0
-9893 2988 -5318 0
-1763 8828 -6374 0
2410 -3227 -935 0
-5442 -1288 2565 0
2012 -9817 -363 0
-7473 -8553 -9463 0
-7614 6026 5436 0
-4971 -5383 -2539 0
4411 310 8115 0
32 -1134 -62 0
-2208 -8317 -3563 0
-7671 3742 -7581 0
-4802 2814 -8645 0
-8126 9824 5405 0
9579 2687 1733 0
-6414 7223 5560 0
-762 3130 4380 0
-7669 -9139 -464 0
7393 4563 -7441 0
-6826 -3293 8431 0
5822 1026 2598 0
-4256 -5156 259 0
1139 6687 1446 0
-5010 5023 -7105 0
-7362 -5911 -5182 0
6629 -3865 -9141 0
-8876 5106 -5695 0
-3993 8521 4532 0
-450 4195 -8490 0
-3049 -2690 -1579 0
-1669 -2845 1066 0
-3128 -5864 444 0
1552 6722 -8415 0
6330 7261 -6289 0
-9897 8632 2183 0
1338 4886 4702 0
5689 -179 -1273 0
-4421 9174 8142 0
6883 4179 9583 0
1069 1011 -9796 0
2521 -8475 3903 0
-2806 -1988 -2228 0
6847 -6483 727 0
-8182 -2483 4533 0
3169 430 3441 0
4378 -894 9670 0
-6532 307 8878 0
2134 2189 -1986 0
-5952 -3810 -9193 0
5633 -1362 -6681 0
444 -5795 -2224 0
9504 8218 9012 0
3477 9250 9930 0
8436 665 7585 0
9149 -1261 -2672 0
-8178 5461 -642 0
-1052 5522 -7163 0
-1960 5439 6602 0
9730 -6515 -2347 0
-4567 4381 -1447 0
9300 1902 -1862 0
-2889 4122 2444 0
-2429 -1816 1464 0
-6405 9030 -398 0
6444 8229 -1441 0
4338 -4875 -5701 0
163 3281 2150 0
493 -2509 -4630 0
4273 7864 3727 0
2405 -5073 3377 0
-649 3511 -1463 0
6130 -9795 -3976 0
-8182 1695 -1819 0
-4431 9774 8318 0
5682 -6364 -6441 0
-8345 4791 -715 0
-7871 7150 -709 0
-3671 2841 -1444 0
-2321 -828 3842 0
7536 -6237 2717 0
4967 6135 6636 0
2761 1348 -4264 0
-5983 7435 6814 0
-9080 8659 6659 0
2074 2801 2468 0
-6386 1312 -3107 0
-4482 1158 -9787 0
6828 -3195 9366 0
6503 -5516 4546 0
8541 7243 -1741 0
1355 2255 -7162 0
6682 7240 3534 0
-906 -8141 -9499 0
4327 8981 3749 0
-2344 -177 9212 0
9763 -2352 5424 0
5624 3974 1027 0
-6739 -7518 -1341 0
-4597 -2515 -464 0
-4511 5359 8608 0
9855 2595 6789 0
-3795 -3361 4902 0
1396 9072 5294 0
-1807 -3617 2696 0
-5254 -5487 -3353 0
535 3613 -1666 0
5401 -5790 6913 0
7253 -2336 -2450 0
1427 -3116 6442 0
4071 -2420 6123 0
-837 710 4770 0
-6246 -5278 -5081 0
-9165 6868 -6512 0
8454 3050 -5363 0
-53 -4110 -981 0
-8112 8436 -8990 0
942 8471 4191 0
9252 -3281 2422 0
-2712 7418 3605 0
9509 2244 3551 0
-8750 -2576 235 0
5178 7717 696 0
-5069 5732 -1884 0
4350 -3220 5771 0
7182 -2857 -2112 0
4656 -1221 -2703 0
-4492 7491 7884 0
-8225 4565 -2013 0
-3858 -6298 -4831 0
-2121 -2476 -3655 0
6452 4566 -6412 0
-5326 6089 5582 0
-7293 3232 9990 0
-8532 -249 2173 0
7903 1156 -7662 0
-4847 31 -7849 0
6512 -793 2078 0
9375 9250 1793 0
8207 -1814 -845 0
7856 4362 -8728 0
-9482 -7759 -5882 0
-7981 -7370 -8686 0
8506 -4554 6529 0
8563 -2242 -6961 0
-6615 4626 3126 0
854 -8477 4119 0
-1784 5778 -6609 0
-7436 2607 -2429 0
-6328 -1593 -6613 0
-9280 -569 -3138 0
-391 -2773 375 0
1633 -1988 3688 0
-1074 -2561 -4572 0
873 1329 -1071 0
6515 540 4854 0
6046 -6097 -9133 0
3137 -9902 -7780 0
7150 -4185 515 0
-9934 2715 5588 0
-8824 5668 -9385 0
1020 2979 2729 0
-6408 4868 4503 0
222 9556 8492 0
-6112 -195 -3553 0
5794 3663 -7707 0
-6028 -3267 -5917 0
7269 90 -7790 0
3691 8081 -6928 0
-7373 -2909 -70 0
-3631 6427 -8314 0
1842 -4242 9548 0
-7882 9381 7323 0
9002 4748 -2905 0
5470 -8171 8707 0
-4329 8621 2333 0
-6371 -7309 8677 0
-2639 1548 4997 0
2598 -6542 -393 0
-2838 4759 4212 0
-7141 -1803 -1929 0
2038 -8189 205 0
4837 1000 8339 0
-8282 5102 7207 0
3509 -8922 -3641 0
-2300 -3221 -5010 0
-4164 -6305 -3562 0
-5421 4473 7129 0
-323 -7599 -6268 0
6487 -3912 -6223 0
7078 -6073 9675 0
9811 5899 -2601 0
6462 -3482 5753 0
5887 78 9049 0
-4413 -7819 879 0
9460 -9629 6646 0
-198 7638 8617 0
-576 -2105 -9617 0
-8921 -8524 2252 0
8247 3382 3252 0
9966 -7729 -9732 0
-9774 -3403 1365 0
-2021 2169 9029 0
4195 6302 -5531 0
7773 9269 5252 0
9788 -7032 -1461 0
2252 1068 8830 0
8445 -407 -3466 0
-375 8727 -9393 0
-2016 -1545 4944 0
8768 2974 2866 0
9878 -8744 -7050 0
3553 -7900 -4548 0
39 9032 -2350 0
6517 2806 8982 0
8960 3712 -1650 0
-4464 4120 -1634 0
2065 8983 7587 0
-6205 -1138 -9150 0
-4161 -558 9406 0
7558 -9004 5859 0
4776 5159 -5273 0
-8518 -6476 -3698 0
-3899 1990 -6511 0
-3417 7440 -6032 0
-9431 -5483 -270 0
1115 7681 -7358 0
7460 5613 -9754 0
1926 8336 946 0
5796 4440 5574 0
-6019 -8682 -309 0
-4981 5265 -2562 0
-264 -216 7643 0
4128 -5539 -973 0
-2099 -9702 4182 0
-6195 9406 -8412 0
-6513 -2685 -9796 0
-5259 8846 -7883 0
1989 -5016 4481 0
1271 2538 -5918 0
-4648 5086 -8114 0
-959 -4636 -6978 0
-9666 9083 6812 0
-5238 5379 2609 0
-1146 -1979 -5307 0
-3826 -1058 3918 0
9183 -6726 6998 0
-9042 871 -6725 0
6854 -1706 -3269 0
9575 6610 3270 0
9982 -6987 7758 0
-4800 -7571 -9908 0
-7345 8170 3769 0
-1517 -4114 -1833 0
-3747 -8296 -3308 0
-894 381 -9522 0
8043 5954 -2186 0
6399 -4020 -4478 0
3396 9441 4046 0
-6734 -2821 251 0
-5557 4091 6256 0
-3121 -8094 -3635 0
-7987 -5285 -5331 0
97 4374 -7518 0
6272 8232 -2354 0
-5358 -4674 -8634 0
9110 -6827 -6561 0
-587 9772 7089 0
-2270 6769 -3475 0
8471 8032 8601 0
-6238 -2724 3819 0
303 7514 -5245 0
-1410 -9428 6314 0
-9785 -1033 2303 0
-1515 3612 6533 0
-6547 -3330 -7545 0
6377 -5126 -5712 0
-6154 -5756 1561 0
6250 4122 8338 0
-1771 567 2037 0
9568 7417 6188 0
922 1439 -6656 0
7017 2692 -9898 0
7430 -994 4838 0
2850 6792 9656 0
-2391 1147 2300 0
-8456 -9943 -5614 0
8015 5382 7332 0
6320 -2132 2329 0
-3624 2563 4504 0
-6809 -1067 5639 0
8421 2784 2487 0
3941 1395 -2060 0
1083 -473 8485 0
-7526 -4214 7980 0
2957 9186 -102 0
-6208 9693 -8447 0
7041 9028 -9803 0
2685 -4917 1114 0
-2722 -5643 -3742 0
-4531 -2639 9710 0
4849 -7102 -4337 0
6749 5646 -5711 0
-4398 -5208 -7935 0
6543 4685 -7394 0
3729 -7292 7926 0
-1882 7527 408 0
9055 -402 1445 0
-1180 7439 4143 0
3961 8508 1294 0
4189 -6041 4942 0
3725 1276 -2362 0
-3377 5010 8320 0
5698 -5105 7492 0
-1074 -3206 -3377 0
-4638 -2990 -6679 0
79 -544 -1528 0
5077 -3845 -2494 0
3013 -4176 -1177 0
-5866 5180 -2205 0
-4574 -3492 3611 0
-1366 -1758 -7364 0
846 -960 -2329 0
-9625 1615 2724 0
-7623 4721 7528 0
9383 3638 -8904 0
4375 -700 3668 0
-278 -8769 -1006 0
9130 -3660 1034 0
-6396 102 9472 0
-5545 -4210 450 0
6767 8871 2651 0
402 -4759 2746 0
-6143 -3476 -9847 0
2231 -8242 5917 0
-637 -6542 -4631 0
3831 4931 6220 0
-4416 1539 -5301 0
6362 -6047 3304 0
4593 -7716 -3199 0
-9907 -8634 46 0
9933 -6207 -2613 0
3907 3497 -2870 0
-601 -7834 -1246 0
3836 746 -4597 0
-7188 -1321 327 0
1260 -3062 3144 0
1706 -7334 758 0
545 -8480 4199 0
-3908 5364 -3022 0
-1540 -384 -2005 0
4404 -9742 -9743 0
3190 7191 7109 0
-2617 5744 127 0
3113 727 -2553 0
-1278 -3221 2200 0
-9324 4081 -6724 0
879 -5166 7525 0
4745 3921 7850 0
-7487 8544 -9271 0
-2447 6412 -2647 0
-1076 5571 8534 0
-7786 2560 -3542 0
-8784 -9225 -4538 0
4867 -212 -9050 0
-6424 6820 -5720 0
-4844 1993 9779 0
-9918 6875 -9173 0
-1598 1889 1832 0
2630 -9864 -9689 0
3611 2137 -7118 0
427 -9551 -4346 0
9927 -2126 -9088 0
-6648 5568 -4311 0
4932 -783 3849 0
-3079 9693 -14 0
-1321 -4041 1563 0
-1096 2060 -6805 0
-2283 -7383 -6959 0
-9032 7509 3265 0
-6414 -2764 -4187 0
6844 -2901 923 0
5895 7916 -6915 0
-2639 1918 331 0
-2131 7092 1838 0
-8815 6190 -4768 0
-896 4352 8415 0
6037 -5259 -3626 0
3044 -7655 -8446 0
665 -9456 9524 0
-9272 -5807 -1131 0
9292 5425 9767 0
-7428 -8692 -3765 0
2498 -4433 5704 0
3611 -3448 -8443 0
-6272 -9856 -7604 0
-219 274 422 0
-6817 -9649 8370 0
1040 5839 -4610 0
-9284 -237 -5845 0
-8028 -5557 -5045 0
-3882 4720 -9381 0
2142 3061 8281 0
-1623 4157 -9067 0
3762 -3675 -2981 0
-1761 3999 5173 0
-7731 -4291 -6611 0
7254 6438 -1954 0
-9470 -6678 1522 0
9043 -414 1422 0
-5009 2327 8702 0
-1438 -2536 -8592 0
7241 -9410 6306 0
4196 8120 -9202 0
2473 -7701 5577 0
1587 9519 7900 0
-9217 553 4891 0
347 3166 644 0
-809 -8335 4151 0
-881 -9869 7237 0
-7583 4526 -2990 0
-124 -7633 -8602 0
8923 -4309 9160 0
1717 1526 1454 0
6996 -8364 -688 0
-3209 7855 -701 0
6007 -2135 -2429 0
2493 -8651 -2772 0
7097 8145 -8711 0
6586 -8717 293 0
-8444 -2009 -9567 0
-2518 -3449 3483 0
7830 7348 -3746 0
-3492 -7296 363 0
706 8498 -695 0
-4894 2522 2890 0
-1409 -8333 -3491 0
6641 -7773 -970 0
1697 -350 -8053 0
9328 5678 -4493 0
-9170 -6827 8560 0
1635 639 9708 0
-9569 1588 -5107 0
5595 -6906 -1219 0
515 5168 8100 0
-5507 7846 -1806 0
-7276 -102 6030 0
9906 -7412 -4938 0
6083 -3030 -6639 0
1176 -5072 1523 0
-2581 3581 2616 0
6738 4180 -1950 0
-864 1223 4255 0
4257 -2731 -5845 0
-2428 7770 4337 0
-6642 4425 -8668 0
1269 8184 4475 0
2572 -3562 -9406 0
-5313 891 -1532 0
6517 1111 -4953 0
8382 7009 -7586 0
-4960 9295 -4657 0
-9590 -7118 -4415 0
-8649 -9853 -2599 0
-8536 8106 -5819 0
6039 2436 8938 0
-7493 6759 -8526 0
7715 9658 5149 0
8380 -9378 -4120 0
-2507 -94 3354 0
-5433 124 -1301 0
6235 7228 -2097 0
-5165 5767 -6976 0
5854 -4757 -3606 0
-229 3540 202 0
7036 8477 237 0
-3548 2292 -7707 0
606 6090 3177 0
509 -7081 5185 0
2605 2308 8310 0
-6591 -7266 8374 0
8234 -6423 6841 0
-8049 9976 9742 0
-4740 -484 3250 0
7689 8542 1668 0
-4374 7124 -278 0
-9172 -4378 -4798 0
-165 -3388 -4625 0
-1414 5611 -3137 0
1979 -7679 3462 0
2280 414 4392 0
-4917 -7590 -3439 0
9896 -9457 235 0
4358 -5058 4596 0
149 -6327 383 0
3234 6551 9291 0
-9621 -5957 1355 0
-8810 2576 -5260 0
3375 -4237 33 0
-8343 9600 3596 0
-4013 4975 1699 0
-9551 2357 -1534 0
122 -5484 1739 0
-5147 3514 2561 0
-731 1338 -4095 0
9443 8051 -1765 0
8090 2241 -301 0
-7140 -7320 -6308 0
-4743 -4794 7062 0
-8237 6269 -7052 0
6474 -9227 -9618 0
-2931 -261 -1123 0
4927 -3344 -5381 0
-9269 -1033 -5790 0
8491 7431 5612 0
7230 3135 7857 0
5528 -8383 -4335 0
1714 8577 -6831 0
-3292 2675 -3411 0
-6516 1222 -1278 0
8137 -3673 1554 0
488 118 2094 0
4264 -3814 -5174 0
7894 -6532 7341 0
5120 -2461 -7992 0
3961 8217 -3731 0
7840 2317 -3756 0
9015 8535 -374 0
8549 -9634 9471 0
1470 6526 -9858 0
-7551 1097 9573 0
-1781 459 -2879 0
-926 4008 -2585 0
-1325 -3538 -1950 0
-6053 -2931 3724 0
-4141 8004 -9372 0
9880 -6004 6255 0
-7241 -805 -4012 0
-9626 5551 -3421 0
8285 -5311 -1826 0
-7798 5032 -43 0
-6673 4851 5490 0
-549 9415 3838 0
-8435 -2243 8612 0
3812 -2748 -5731 0
-8089 8043 4279 0
1724 -5503 1268 0
124 -1781 7544 0
1608 6186 6051 0
-5697 -4157 -7615 0
7697 2344 -4144 0
46 -2406 -761 0
550 3152 -4064 0
-8615 -4133 2994 0
8708 45 1607 0
-3799 4410 -4093 0
-546 -1793 3759 0
1406 -9 4142 0
893 829 -2865 0
4085 -2197 -4648 0
2121 2816 -9961 0
-5082 -5278 8054 0
3659 -8890 285 0
852 -3474 8741 0
-6112 -5456 8821 0
-1614 9379 7672 0
-9944 -2941 4232 0
7833 -6791 5470 0
-9063 -4312 -2264 0
-2309 2167 3699 0
8364 9149 -6879 0
7807 -4373 -1964 0
-8043 -1700 6013 0
1792 -2738 -3779 0
3641 -8233 8448 0
3930 8966 3533 0
9748 2270 -7116 0
5539 -3040 4161 0
253 9725 -2207 0
-7532 8509 3043 0
-5088 3661 668 0
5631 -1513 2987 0
3036 525 2229 0
4764 -3730 -8809 0
-6367 -6426 -9882 0
-9157 5638 6105 0
6058 7138 6536 0
6937 -9291 5858 0
7390 8684 9311 0
-9984 -2616 -3043 0
-2035 8293 -2147 0
6874 -690 7307 0
-5665 1451 -3630 0
5113 8421 -3978 0
-6435 2915 7679 0
-9581 8823 5415 0
-1010 -183 -5955 0
3008 7467 -474 0
9530 -6390 -9986 0
5438 2949 65 0
6494 661 855 0
-1606 -8372 -1923 0
7298 1842 -2729 0
-6160 -5914 -7733 0
-4727 9983 -4571 0
-2169 8524 -5559 0
-5642 3040 -2308 0
1706 -1004 -9379 0
3418 8917 8988 0
616 -1330 3364 0
8341 1161 5699 0
-3887 -2595 8826 0
-6421 9754 -4121 0
-6060 3242 1376 0
-7801 -7481 2822 0
2653 -1563 -6016 0
8790 5445 7948 0
-5376 -2697 597 0
6710 3655 -8824 0
6477 7030 -6489 0
2911 7632 3422 0
5410 -6138 2112 0
5747 9768 -1186 0
-8925 -1976 -1214 0
-1911 80 -3464 0
6605 -1257 -5206 0
-6746 3799 -947 0
-5060 7993 686 0
-7037 4611 6630 0
-3284 -8702 8112 0
3473 -9583 -8958 0
2064 7360 9536 0
-1562 -9130 3801 0
7838 3967 -9793 0
-8852 2077 5394 0
-4520 124 6764 0
-9861 1287 1219 0
8655 5190 -1855 0
-9171 1714 -6475 0
-4983 6250 5945 0
-9833 2424 -8413 0
2483 3369 3879 0
5484 -749 6475 0
2202 -570 -6484 0
-5861 5782 9846 0
3679 3975 -3956 0
2546 9508 5722 0
5093 -2845 -2362 0
-8249 2842 1795 0
-1413 462 4350 0
-3440 8550 -7063 0
-9762 756 -7024 0
420 7937 5836 0
1740 -3039 -1010 0
319 1331 -3764 0
-1547 4272 7438 0
-1840 9076 -1819 0
-2754 -1893 3162 0
-3946 4664 8510 0
-2243 -3316 -8461 0
-5596 9927 -2032 0
7629 7370 8650 0
7509 -7417 2352 0
8322 5965 42 0
-5118 -5925 -9485 0
1933 -4289 -2677 0
-9020 -9085 -1128 0
-3747 -7059 918 0
4658 6672 7355 0
300 -6164 -634 0
2529 4559 -4143 0
2671 1770 -2332 0
21 5918 -7326 0
-8666 2937 -4638 0
-4361 8774 6816 0
558 -6511 -4722 0
-7007 6898 9156 0
-9541 8043 1875 0
5032 5322 7607 0
-2405 2968 -6221 0
-9503 4958 5272 0
-9732 5330 8499 0
-7203 349 -7600 0
-9354 8164 4093 0
-7055 4191 -3332 0
5071 6498 1824 0
-2934 -2058 -5773 0
7129 1696 9450 0
-1916 6139 9697 0
7969 7519 9755 0
1370 -6533 7603 0
-9705 -1604 3774 0
-4214 3335 -548 0
9944 8969 9597 0
-5825 -4711 -5931 0
-6408 5274 1888 0
-3807 -6383 -7495 0
-4509 -1011 -6911 0
-8887 8114 -7461 0
-8094 -4678 8290 0
1885 7179 -8566 0
-7848 -3272 -185 0
-4134 -3965 -1261 0
-4724 1669 9336 0
7663 -1830 9607 0
2826 -5977 2461 0
-450 -2269 9869 0
-9254 2000 -8595 0
-8479 -7375 -2142 0
-8468 8204 6333 0
-9452 -4987 -1120 0
4600 -3588 1783 0
5488 -1713 -1043 0
3891 361 4575 0
-5636 -5607 -1174 0
3856 -8046 -5924 0
5667 -386 253 0
-6447 2186 -197 0
9095 2874 -301 0
7979 9836 7889 0
-3494 -9820 6177 0
-251 -2674 8361 0
2474 -9555 -5576 0
7788 4655 -1790 0
-982 9096 -2076 0
-6416 9945 -9893 0
3350 -6793 9441 0
9675 3205 -3281 0
-1258 5024 1289 0
-1067 1427 -5796 0
7553 1756 9014 0
7944 -1858 6064 0
-6765 5643 3045 0
-5523 -6307 -1893 0
-3835 28 -4537 0
-6423 3526 -6880 0
9316 6638 -2851 0
2128 -7562 8264 0
-1901 2574 7753 0
-7863 -7730 -9219 0
8560 -5030 -2526 0
6260 357 -2504 0
6917 -6341 3032 0
-3034 -9481 -9824 0
-6279 4182 996 0
-6432 4471 9334 0
736 -2660 -9024 0
6400 -2860 -5683 0
6410 -4596 4061 0
7164 -3383 3749 0
-8468 -5393 -7183 0
-6971 2010 -424 0
2754 -1013 -7522 0
-523 -6200 4984 0
8858 -795 -6785 0
5370 -3950 -6200 0
3043 4496 4348 0
-9020 -456 4499 0
4391 9348 -9759 0
1371 504 -4039 0
-9409 2729 8484 0
-2742 -6911 724 0
-9606 766 1093 0
9250 -8879 5216 0
5275 3429 -8681 0
2385 -2181 -961 0
-9326 5438 5608 0
-159 -2767 -7464 0
6773 -4643 -3238 0
-6824 3205 4087 0
8339 3349 -7386 0
-9912 4569 9296 0
-2878 -7412 -5971 0
-53 1042 1320 0
8407 -2558 -1738 0
3798 -7516 3360 0
-7544 -434 3777 0
-8904 4955 4686 0
-5369 -9728 10000 0
3031 9072 7863 0
-7369 4372 -4074 0
-8267 1413 1694 0
-2966 -5522 -5342 0
-741 5844 -8785 0
-5422 9513 9052 0
1070 7702 4954 0
2494 -5235 -9068 0
9486 5284 4493 0
1742 -9163 -5962 0
8154 2960 -8464 0
-2817 5781 1466 0
8560 -5050 -8060 0
-50 -6428 8478 0
3233 -1597 7931 0
9462 6920 5236 0
1068 9510 -5756 0
-2459 -7076 -4576 0
-6953 -8961 -9652 0
-197 -7168 -8493 0
6746 -3038 -3188 0
3656 9110 -1090 0
-1155 -8429 -9060 0
-8209 1401 -1861 0
5776 8605 -3367 0
-3224 5212 -7599 0
9526 -9030 9244 0
9943 5793 160 0
-9561 -6240 8645 0
6678 6337 2294 0
8079 -4431 -5449 0
9558 7320 -4551 0
5554 -7009 -7978 0
5041 1635 -3597 0
5954 9603 -8129 0
9328 6030 4896 0
46 -4073 -2349 0
-3468 2639 -4041 0
7223 -1729 5570 0
-1743 4898 -6686 0
-5091 2860 3750 0
231 -3200 -4574 0
-3519 3462 7826 0
-5889 -9108 4377 0
7800 -2605 4470 0
-6996 6590 -4695 0
-2888 2287 -3871 0
-1180 -1004 9297 0
2087 5510 -8273 0
-1186 -1141 5091 0
8984 -7112 -1556 0
5432 -5852 -3522 0
-3170 6903 -4636 0
5985 2203 -1922 0
9816 -6340 -2950 0
5475 254 -751 0
-2470 -2134 2115 0
-5866 5858 -740 0
8761 4462 8281 0
-5070 3592 -1439 0
2349 -4955 6791 0
3864 -263 4802 0
-9278 -6763 4655 0
-4170 -2016 -527 0
-7708 -1126 8599 0
-6780 -5230 7146 0
-5982 4023 -3116 0
-9430 8502 5891 0
-6585 447 3462 0
9590 5801 -8498 0
6686 4399 5252 0
-4406 -35 6298 0
9005 9424 2357 0
-1823 -5483 -2978 0
1484 -9479 9355 0
1908 -1513 6818 0
-2372 -8940 3600 0
-3944 2717 -6076 0
990 -6092 -9027 0
-1489 772 -1347 0
143 -142 1143 0
538 -7430 -4176 0
-7238 -4722 -9865 0
3915 4894 5629 0
5429 5491 -5674 0
-8797 3376 3406 0
9636 -942 5858 0
3199 -69 -7182 0
3696 -9696 -2290 0
284 2207 -340 0
-9052 -2972 224 0
8206 -3849 -3451 0
9037 3130 1057 0
5519 -8670 -7341 0
7994 6364 7805 0
-5347 9592 -6907 0
3991 2994 2718 0
3869 -4377 1670 0
907 -1814 -1663 0
-4785 -1867 -6032 0
-7197 2707 4049 0
-703 -3912 -5592 0
4558 -3749 7908 0
1047 7911 4155 0
8456 -5292 6338 0
-9526 -9007 -7074 0
2417 -4881 9560 0
-467 7838 -354 0
-2422 7206 -5389 0
4633 -4178 -6548 0
-27 -7875 2010 0
5534 -1042 1501 0
2213 -2443 4748 0
-3060 2873 283 0
-4604 -7286 -9790 0
4923 -5348 -2086 0
-6768 24 6170 0
8325 -2293 -4804 0
5929 -9510 -2140 0
5103 -2982 -405 0
2114 -2283 -1502 0
1392 8295 7384 0
2568 5979 8739 0
6440 -1777 -4754 0
8922 6894 -9917 0
7797 -774 2481 0
-786 -1926 -3008 0
4084 -3272 3372 0
-8370 7301 -4514 0
6130 2376 -1237 0
3027 6127 6467 0
2867 7019 -3948 0
8178 -5146 -3925 0
-8968 1714 -5368 0
134 -2841 -1846 0
-9702 -9048 -7646 0
8283 -1116 -7335 0
8795 1655 -3148 0
2906 9113 -7985 0
-81 -4512 -3874 0
-487 4947 6344 0
-6373 9691 578 0
-4115 -7018 1311 0
-4236 -7859 1636 0
-9136 5624 -6574 0
-3477 -6659 -8354 0
-6782 9804 7974 0
9289 -6814 9301 0
-6329 6382 1972 0
3718 3753 -3982 0
8322 2577 -1917 0
8557 -7886 5547 0
-7789 -1729 -7231 0
7601 -5121 -7391 0
5220 6173 -8692 0
-4332 1306 4515 0
-1523 1954 8766 0
3545 9463 913 0
-7537 883 -4928 0
-3113 7176 3790 0
3283 -3014 -8492 0
-5052 6281 2606 0
6485 4487 4143 0
-1686 2705 -5331 0
5844 -9874 9277 0
8648 -491 -3958 0
-8486 -3988 -1669 0
-8551 5645 -4234 0
-790 9331 6678 0
2171 -8450 9018 0
2774 -7856 -94 0
-3473 9115 -5527 0
6824 98 -1412 0
-5693 -5687 21 0
-8992 -5191 -6953 0
-4310 8386 -8568 0
6916 -7818 1351 0
3064 -1684 7761 0
5701 -3668 8634 0
2738 -9620 4351 0
-7866 5715 -6952 0
5782 806 8038 0
-3796 8083 -8177 0
-5500 5627 -3175 0
-1808 -7516 9153 0
3903 -3883 -863 0
-853 781 5907 0
-1864 8623 -8214 0
-1594 -4439 -2606 0
2867 3834 -2400 0
-4367 7373 4329 0
5527 -7012 -2301 0
427 -9077 5695 0
5735 270 6488 0
5912 -5167 6462 0
7635 5019 4770 0
-3014 -6496 1748 0
6695 -8789 -1345 0
1692 7897 -2730 0
-3264 -3294 5013 0
9942 6587 8209 0
-6233 -6787 -8154 0
6879 1640 -5167 0
-4968 -1007 -1216 0
2680 -4472 73 0
-2263 -5206 -7874 0
-3998 -8243 5530 0
-6046 5956 -277 0
-5084 -9153 -8052 0
716 5493 6484 0
9504 6724 -6471 0
-2715 8556 -8608 0
5035 7274 1411 0
-9971 9532 5057 0
9511 -1336 -2971 0
1004 4966 4946 0
8289 3517 -3977 0
5377 -3101 -6507 0
-1544 -9099 6079 0
-4360 -3444 5382 0
-5828 9174 5424 0
7413 -3556 1040 0
-5419 2396 -9311 0
3350 -9710 -2898 0
8535 6905 5135 0
-2676 4335 -5356 0
7451 -5319 -1653 0
5855 -6150 8343 0
-3600 1133 -8071 0
-3085 9171 -472 0
3725 -2622 -2549 0
7050 -6842 -9012 0
-4643 -7973 -6416 0
-7563 5820 -9619 0
-5 1491 2217 0
-2906 7094 -9932 0
-6793 -5373 -2984 0
9919 -9212 7083 0
-125 -6648 1742 0
8974 -8854 7674 0
5240 6052 100 0
-3389 124 -3834 0
-1026 -7425 -9256 0
-9258 5056 -7121 0
5804 6123 -8112 0
-2053 6322 -8718 0
-1953 -372 95 0
-8195 -5261 3299 0
-1147 -7491 1382 0
-8266 3651 -5615 0
3468 4744 -7264 0
9764 5221 -8388 0
-4368 -1386 -7444 0
1584 3853 423 0
-5236 2162 -7591 0
-7015 -9103 7202 0
7685 -3216 2267 0
4523 -8558 -7950 0
-3809 -7698 7236 0
-9701 7373 -4593 0
4143 -6054 6428 0
3543 4990 7487 0
6811 -7253 8876 0
8355 7520 8563 0
-5047 -9910 -8929 0
4671 4292 -4169 0
-4218 -9823 -9544 0
-3215 -4019 -1728 0
-648 4978 8976 0
539 -8636 -9390 0
7688 -4676 -6106 0
8746 1451 1414 0
-8817 7945 -7782 0
3217 -9494 4957 0
2348 1865 -349 0
-5078 -4961 1646 0
-2288 -9274 -478 0
-1505 8011 -360 0
-1386 8353 -3376 0
7003 -7079 9346 0
-236 3854 2271 0
5007 -1959 -3323 0
4739 9279 -7047 0
-2992 5850 -6972 0
5031 -4704 -9946 0
-7343 -1117 7448 0
-7828 7502 -9127 0
1633 6061 5339 0
-2604 9195 2544 0
-5372 5906 4378 0
-4158 5768 8543 0
-3173 -280 3365 0
5306 838 -5810 0
8987 7496 6931 0
-9153 6957 5010 0
-7669 6318 -7721 0
4634 5416 299 0
-3444 -9599 8128 0
2652 -2646 2321 0
518 4697 -7933 0
-6076 -350 1136 0
-9574 -2305 -5707 0
5524 8669 8475 0
-4887 -8625 1060 0
-7794 -5405 2013 0
4183 -6300 -2447 0
6772 2153 436 0
-8207 4554 -9315 0
5118 -7963 7250 0
102 839 -4872 0
1286 -1738 -5960 0
-7008 -4241 1986 0
-8639 5641 1862 0
6054 -3950 1897 0
-9399 -6704 9793 0
3020 -5456 -5664 0
389 6823 2088 0
-4685 2823 -8374 0
-3394 1705 -3607 0
4305 8704 -2743 0
412 -6552 -6687 0
7508 2656 -4495 0
-6450 -6568 7239 0
-3158 7593 1712 0
-2002 8887 -3874 0
-2286 4247 -3477 0
-1022 -2386 -1536 0
3510 3494 4999 0
-2295 7826 -1783 0
1329 -2680 289 0
2259 -4505 3401 0
9548 4312 8468 0
-9689 9256 9176 0
5551 691 5659 0
3211 -6014 5887 0
5279 7615 4112 0
9286 8427 4064 0
-3420 -8988 4439 0
-5327 7756 6208 0
-9892 168 -8354 0
-4877 -7334 -8297 0
2424 -6070 -7689 0
-5118 -6737 7182 0
-9314 -9904 3398 0
-2420 -6438 -6420 0
-167 1039 -2224 0
-1029 7887 1648 0
-5522 -8219 -1291 0
7699 -5736 7841 0
-3854 1157 3621 0
-8450 5909 9222 0
-5161 -5817 -675 0
5171 1198 4338 0
8870 -4340 5448 0
-9100 9205 -9531 0
-4235 -5627 9923 0
9301 -9968 310 0
-6182 2742 -7974 0
-367 -931 -1349 0
8257 -6196 -354 0
6669 -3993 3935 0
-8706 -1036 6539 0
3883 -4713 -5304 0
8821 1628 -6128 0
2097 -2655 -4874 0
1085 -1146 -7785 0
1509 -7390 -2059 0
-3429 -6342 7674 0
-2892 -2429 -2801 0
-5361 -1930 4971 0
-5923 9175 4344 0
-6204 -9947 5806 0
-2386 3492 -2663 0
-7946 -4733 5159 0
2142 -722 -8334 0
5626 -7838 -4732 0
-3812 -4680 2644 0
5303 -9189 -4588 0
-7356 1742 8649 0
-1884 4365 1974 0
-3890 -7254 -2550 0
1929 2625 838 0
-7935 -5881 6766 0
-8384 2791 -2843 0
1073 56 -4056 0
5775 -2025 -8251 0
1838 1690 1948 0
3568 4916 2012 0
-4325 -5731 -6239 0
460 -4275 7863 0
-6900 9628 9633 0
-346 -9630 3807 0
-1640 -7837 9469 0
-4093 -4674 -4142 0
3783 894 -8568 0
8629 8502 -9325 0
-667 823 6282 0
-6659 6438 5991 0
3118 -7836 6111 0
8058 -8767 4988 0
6555 -163 -4222 0
-5130 3897 3962 0
5019 -3009 -866 0
-5343 1883 8529 0
-8910 3974 388 0
9362 6418 -1280 0
-732 -1438 8844 0
4402 -3564 -3855 0
-6306 -9457 -1780 0
-2375 3686 -1242 0
9959 3961 -7482 0
745 1432 -228 0
-2690 -5592 7181 0
-9443 2523 8907 0
8284 -8898 -7610 0
-9555 -5555 956 0
3928 1893 -2852 0
-5572 9114 -9620 0
-5961 -7110 -8324 0
-3058 8966 8927 0
9676 2302 6241 0
2442 -651 5056 0
-7263 -3790 -7931 0
5431 -1283 -4450 0
-4423 2123 -9616 0
3600 -6991 -4768 0
-6273 2762 -4340 0
1394 -6002 -2509 0
-7012 5084 4914 0
-1215 9282 8307 0
-9550 -119 4803 0
-5358 -1178 9260 0
-2577 8219 -9678 0
1340 -9837 -3284 0
-2642 -9796 5001 0
1885 -3076 7389 0
2927 -9264 -6987 0
-7547 7944 9045 0
-9972 4002 1505 0
-2794 -1157 2408 0
4358 5868 6429 0
310 -9547 8580 0
1266 -4798 5548 0
-4334 -5433 -123 0
-6121 2835 -796 0
-4925 -1349 -952 0
-3122 4228 -7688 0
-8175 -5079 -9383 0
-8856 5180 -5789 0
5233 2861 3214 0
7421 -708 -6686 0
-6523 -1766 9467 0
1381 5976 -9124 0
-8464 3956 -3549 0
-9907 8424 7732 0
4394 -8184 -2226 0
-6119 6415 -8139 0
575 4569 329 0
-4952 1311 6793 0
8256 5605 2724 0
-5939 3043 -2124 0
7702 7643 3154 0
166 4691 2111 0
611 -767 4051 0
-7427 -9612 9420 0
8242 -6638 -9730 0
-1373 -9203 -6642 0
-840 6485 9414 0
9161 8957 3608 0
-5598 1371 -9923 0
3056 -807 2113 0
-3914 -5767 3551 0
-8748 3913 7273 0
7720 8748 9482 0
7921 567 -7016 0
-9014 7913 -2780 0
-5158 68 -6554 0
-4183 -7345 -2054 0
6864 2502 4968 0
5228 -671 8750 0
2948 -8943 -9220 0
993 -1672 -556 0
-6899 -415 -2450 0
-9046 -5129 -7004 0
5313 -2787 -6576 0
9418 -1321 4950 0
-4825 -1995 -1477 0
-7578 7524 -557 0
6096 7549 -7771 0
3377 -4230 -9721 0
2609 -788 1015 0
1033 1741 -2167 0
2945 3282 2076 0
5884 4886 1502 0
4955 1212 6586 0
1036 6969 185 0
2268 9722 9157 0
1747 -1574 4374 0
7747 5533 -9549 0
2993 7844 9256 0
6104 -2725 9544 0
-8907 4298 -5936 0
-2810 -2363 -7404 0
4524 2733 -8396 0
-9060 1613 -9959 0
-4199 -9999 -2836 0
-3435 9972 4094 0
-2267 5436 -1780 0
-1722 4773 7533 0
-398 7775 8133 0
2313 -3783 2575 0
5578 7273 9674 0
-8471 -3948 -5110 0
7019 -70 829 0
7386 9776 -9297 0
-8948 -7081 8339 0
-4178 297 -8487 0
5259 7574 7505 0
8192 -5984 -2663 0
-7437 -9358 2507 0
4537 -3742 4013 0
-3474 -6731 -1972 0
2479 -4183 -482 0
2605 3264 -8378 0
4219 -5520 -8946 0
3361 9368 1311 0
7860 5406 -2157 0
7698 -8742 -9388 0
-2674 7506 3714 0
1337 5841 369 0
-7107 -3589 -1050 0
6692 3955 -9369 0
-1738 667 -4306 0
5366 -7466 8045 0
-6070 2407 -7792 0
-9977 -3355 2796 0
-3256 6962 -5153 0
8288 -968 6321 0
-7754 4875 -277 0
-3127 1304 9799 0
6825 7588 4977 0
3088 -6051 -7018 0
7020 -7781 9172 0
9232 4111 8178 0
-6519 -7131 -3365 0
-9768 1897 5142 0
9081 -2683 -164 0
-110 -161 -591 0
9772 -8690 -6867 0
-5686 77 -2966 0
-8666 -5778 -8455 0
5016 -1935 -8161 0
-3547 -7007 1660 0
-8693 -8340 5025 0
-4357 882 -2027 0
2909 9208 7979 0
9517 -3546 5851 0
91 -1955 -8220 0
6463 2262 5651 0
5504 -1622 7552 0
-4706 4529 -1804 0
8764 -8118 -8963 0
-6376 -7155 -5312 0
-5936 5578 -3066 0
-3124 6259 571 0
5549 1278 8066 0
9296 -9390 1981 0
-7495 -8711 9364 0
-9874 7527 9852 0
-6232 1560 4591 0
8429 2233 -9766 0
-6934 -8298 1539 0
312 -8418 -7083 0
3642 -5382 -971 0
-8840 -3677 -2092 0
-3094 3409 3199 0
-6741 -5651 -5297 0
-7497 7566 -4230 0
3715 2110 -7984 0
-4240 -7348 -6243 0
9359 -4800 -2922 0
-4364 6604 9390 0
9407 6295 -9000 0
7463 -1453 -4885 0
-7775 5861 -6241 0
1248 1931 7086 0
-2339 -1459 -2592 0
1640 -4217 -633 0
770 3671 7960 0
-2850 -5838 5506 0
930 1988 -355 0
-4663 -5619 -1856 0
3393 -4171 -8240 0
-3267 -6742 670 0
-4329 2755 7847 0
7780 3489 -5258 0
9284 5079 4276 0
9556 1524 440 0
-4439 -429 -9930 0
1812 7932 -118 0
2123 8400 -3350 0
-2223 -2411 -8141 0
6811 1154 1226 0
2380 6302 -5359 0
-5069 2560 -8651 0
-2479 -8647 -1623 0
7403 5608 2784 0
3762 9506 6658 0
-2304 1443 852 0
5062 -9916 7697 0
6621 -6074 -4775 0
-8215 -9256 1990 0
-454 -4812 301 0
-8292 4525 8108 0
6655 4994 -4749 0
4133 9403 2176 0
-6973 6468 2171 0
66 -5942 -5457 0
8460 8185 -1122 0
4016 -265 -2778 0
-279 1515 8684 0
-3198 -7210 -6335 0
-9462 -239 550 0
-1372 -1170 3289 0
-5964 -6943 -3662 0
-3701 2547 -6531 0
9333 1678 4204 0
2151 -1253 -9817 0
5622 3251 3570 0
6278 -7651 1306 0
-9913 7421 -47 0
2290 7358 7727 0
-8962 -2174 -2804 0
3357 5291 678 0
-5805 -1075 -7446 0
4662 9414 -9464 0
-5306 4643 2502 0
-4722 748 5793 0
2733 -1796 -3127 0
-7845 5108 7924 0
2875 3617 9784 0
1349 -4876 -8222 0
-9409 6722 -4581 0
1965 -5939 -5668 0
8708 -5876 6864 0
-2714 3871 -9569 0
-7122 3171 -5852 0
2495 -8562 8275 0
237 -8336 -2376 0
-7631 -8035 3831 0
-5901 -3010 9979 0
4506 -1318 1698 0
3026 3958 9211 0
-2812 -5273 1020 0
2898 694 -4411 0
-1515 9941 7937 0
-2159 -7543 2966 0
7515 5326 5923 0
-7809 9387 -571 0
9907 -2989 3356 0
1422 -2368 5905 0
77 -457 567 0
4310 6644 9825 0
-4142 8474 -6200 0
8292 -8631 9890 0
-2745 7802 -683 0
2398 214 4178 0
-9586 2021 8404 0
-4009 -8232 -2931 0
-3391 -96 -5357 0
516 1728 -4458 0
-4180 -4860 -5920 0
-7995 9201 2606 0
-3687 332 9792 0
5381 -5160 -3969 0
1513 1807 5727 0
3719 2683 5651 0
9528 -6714 -5679 0
-962 -5738 -2594 0
5964 -2800 4414 0
4202 518 -6402 0
7904 5452 3843 0
-9254 -5170 7533 0
-2823 3430 2854 0
8765 -3527 -4912 0
-8980 5020 -216 0
-359 3052 -1333 0
2384 -735 -5047 0
2862 8311 -9578 0
921 8548 4284 0
9438 -5426 -5945 0
-9903 898 -9225 0
-9166 1225 8973 0
8522 9412 3997 0
-5910 8301 9572 0
-3546 7362 2027 0
-1584 3154 -1656 0
-4444 493 6869 0
-3074 -206 -5336 0
-3574 -3725 -9250 0
1425 -1990 -2749 0
-5400 4036 -2129 0
-2315 -5962 -5279 0
8166 142 4939 0
-3658 9005 -6664 0
2435 -317 -349 0
6199 2069 1156 0
-1745 -3881 1639 0
-789 -3465 2691 0
9515 -6683 -6179 0
-6404 -3972 5457 0
-9328 3914 -6201 0
6549 -3566 4852 0
2916 -985 1524 0
4225 -4141 7306 0
-9822 -8314 -221 0
-4268 -5927 -830 0
4552 -3497 4611 0
-5639 4664 -16 0
1843 -9309 -1245 0
-5404 8565 5569 0
1658 4638 -1455 0
-3550 9737 -6871 0
-2579 -9983 -4967 0
1007 -6662 237 0
2770 -9855 -7673 0
4086 -8568 3370 0
2667 2031 -1350 0
-5522 6117 1370 0
-3278 1599 -8921 0
734 -3611 -5932 0
-7851 9260 4422 0
-8076 6375 -6892 0
2252 9894 91 0
-9544 -6680 3571 0
3758 5191 374 0
6157 4079 -8891 0
3555 2367 -9565 0
-66 -3042 -1605 0
-2052 3534 456 0
-2165 -8761 -8641 0
6940 5530 -7718 0
5223 4914 2294 0
-9168 3148 -8277 0
4281 -926 -6418 0
7462 -9239 -3523 0
7911 -591 -4156 0
-1493 -3115 -299 0
-3230 -1376 7112 0
7762 7216 -7161 0
9185 -5462 -3489 0
7983 -7722 1386 0
-4219 5437 -5481 0
-3618 -7538 148 0
-5323 6760 -9193 0
-7867 9182 -4361 0
-789 -4823 1341 0
-8413 -3351 6621 0
-278 6690 4360 0
-1380 7656 7456 0
6123 9912 6241 0
-677 -9537 379 0
-2984 -1843 6373 0
6159 8851 -1682 0
6161 8288 -1356 0
-7548 -6710 -1903 0
2008 -5886 -4965 0
-5067 -5143 6853 0
8853 8130 -6794 0
-3424 631 -9070 0
9812 -4166 -708 0
1233 -6101 -8775 0
-4656 6073 -6630 0
9423 -4864 -5596 0
-3112 9051 4018 0
4381 3212 -4452 0
-3395 881 -3033 0
-1579 -5720 6789 0
-9877 -8463 6617 0
-2742 2279 -4291 0
513 -3451 -9040 0
-154 7441 101 0
8636 4865 1262 0
-5617 4755 2087 0
2537 5091 6428 0
-2484 -4624 3581 0
1994 -844 800 0
-1362 2573 8039 0
-2957 4998 -2382 0
-3729 3168 -9563 0
-3020 8811 -4549 0
537 -4512 8810 0
2924 4147 -6828 0
-1898 4771 8308 0
-3875 9689 -9178 0
9657 -2816 -9531 0
9786 1745 -2203 0
9117 4512 -2243 0
6074 -7508 -7781 0
-4216 -7229 -4795 0
-7589 1603 1854 0
1879 5696 6405 0
8650 8634 -7458 0
-780 -5251 6617 0
-7172 5462 -1994 0
-9805 856 1854 0
9150 -2210 -3150 0
-9041 -6031 -2807 0
8020 6493 8572 0
3960 9278 8548 0
-2125 9274 8554 0
5584 -5166 -7294 0
1514 -2741 1353 0
-6728 -8648 -7486 0
2687 6338 -1737 0
-6453 9959 7699 0
-5175 -236 6940 0
-765 105 9770 0
8750 -1831 4490 0
-4164 -1585 62 0
4257 3343 -9518 0
7547 -8245 -5735 0
3998 -4031 -5530 0
6466 3739 3728 0
-3109 3422 261 0
-6276 -477 -9736 0
-7569 -2345 -7374 0
4944 142 -3842 0
9714 6941 -4883 0
-4669 -3782 -8348 0
-5627 -6240 -732 0
8160 3740 -6837 0
9838 -5022 -6671 0
4454 -6067 6492 0
-6226 352 2708 0
7632 1465 4813 0
-6428 5654 -9595 0
-5580 2369 2324 0
-288 -4824 5778 0
8776 7852 299 0
8071 6096 1459 0
-713 -2256 -2118 0
6978 -678 -6142 0
7696 2730 -1586 0
-246 1507 3283 0
-9271 -9153 8108 0
2415 -9354 9425 0
-4529 8995 4642 0
-5971 2879 -8467 0
5158 -664 -5074 0
-6843 268 -2352 0
2846 -9428 4246 0
-7682 -5619 6024 0
2845 -2959 9321 0
-9561 5807 -2032 0
-2904 -2289 -6854 0
1035 -4871 -5885 0
1909 1803 9300 0
-7836 -3100 1682 0
8731 7897 9601 0
5900 -2994 -8548 0
-2570 2648 1503 0
2804 -6965 -9626 0
9341 4398 1934 0
2761 -2932 -9244 0
4827 8436 -3538 0
-4431 2558 6942 0
6456 -9954 -1014 0
8666 -7549 2034 0
3707 -7449 8033 0
-1166 -7991 9502 0
-5313 -3051 -2413 0
-9597 8371 -3112 0
-1093 -557 3847 0
-26 -1382 -738 0
-9444 -9901 -5818 0
-9782 -8949 5647 0
8737 -1030 8333 0
2286 4760 6423 0
-1194 -1382 9721 0
-6273 4928 -254 0
-4791 -4943 -1006 0
-4507 -371 243 0
-2904 -5431 -1101 0
5774 2663 -9694 0
-4483 1612 5115 0
-7958 -2323 -1497 0
-5265 6083 7364 0
-832 -2751 2160 0
-8036 26 9988 0
-8341 943 8907 0
1834 2474 -8580 0
8883 7459 -4158 0
-4366 6263 -200 0
-7309 -916 8350 0
-4326 3743 3917 0
-1102 9609 -9736 0
-2791 4511 7606 0
7460 9705 9406 0
-9368 -9402 7637 0
-3174 -209 291 0
70 5243 1883 0
-6763 8485 1301 0
8363 8967 -6222 0
7548 -1601 -4395 0
-673 -153 1844 0
-279 -2628 4082 0
-4534 -224 6021 0
-1829 -9279 3454 0
9947 -5791 9877 0
-9336 3998 4759 0
-9850 876 7500 0
5776 6979 5119 0
-9364 1868 -7469 0
5877 1890 4163 0
9563 5145 4800 0
-2309 -7712 -9335 0
3727 8901 2902 0
2367 8366 -3484 0
-8896 -9086 5597 0
-4158 9633 -2166 0
5182 -1735 634 0
9904 8043 9250 0
-4042 -2417 -5107 0
-3315 7101 -6949 0
-1322 -9780 5164 0
-1327 -2608 71 0
6582 4365 -6613 0
7870 -6955 8155 0
5240 8815 -2260 0
4558 -3026 -747 0
-2658 1325 6555 0
9268 3255 8290 0
190 -4154 -7496 0
-9799 -9706 8276 0
2823 4897 7745 0
1894 -6787 -4512 0
4970 4789 9029 0
-1624 3881 -9620 0
-3890 -4157 3137 0
-8172 -662 329 0
5412 -8282 3713 0
-5451 -1924 3697 0
4041 -6732 9237 0
-2483 -9049 5345 0
-2637 -5640 6126 0
3424 -4514 5787 0
-4009 -4318 7209 0
-226 1625 425 0
-2137 3929 -7318 0
2606 -5083 -5049 0
3741 3594 9125 0
1325 7160 -8851 0
3992 4042 -4453 0
-9733 7137 9314 0
6832 5006 -5148 0
-2752 -7681 -8514 0
1664 -8120 -5881 0
-7060 -3027 -4927 0
-1659 -9165 -7552 0
-1086 -6605 -9140 0
5799 -2016 -1624 0
-1810 -1639 -8817 0
-5209 918 4013 0
4668 -130 1843 0
4849 -4962 1641 0
-5205 7590 4326 0
8359 -2230 7562 0
8820 3817 2497 0
-2734 -9327 1106 0
-8639 6419 -9062 0
6340 -2323 -6885 0
-8182 -7324 6552 0
7966 -9593 -9188 0
-4302 7381 -9 0
7856 -4587 -5451 0
3630 -9546 -4431 0
2314 7627 -3043 0
-7229 3570 4563 0
7288 4521 6996 0
1505 -8635 9927 0
-3707 -2489 -4740 0
-8295 2116 -5767 0
-5598 6128 7095 0
5656 367 7358 0
-466 -7569 6668 0
-745 8201 4047 0
-3128 7426 3440 0
-5132 2768 4841 0
7625 1196 -5834 0
9030 -5710 -617 0
5337 -2589 -7380 0
-4457 3930 3837 0
1526 357 -2989 0
-3728 2456 -7635 0
-5902 6660 -5724 0
8139 -9292 -8210 0
6712 -9223 617 0
6269 7884 5402 0
-3490 4367 -6547 0
-9331 8707 -4738 0
7422 764 2255 0
-7209 -8554 5136 0
5579 -9900 3991 0
3934 3125 -621 0
-8490 5676 3982 0
-708 4786 6727 0
580 -7129 -922 0
8901 2642 6851 0
-6974 -6614 8338 0
9639 -3194 -9522 0
5595 -6589 6493 0
-6661 419 -8128 0
3633 7506 -6325 0
-2106 -5166 -3301 0
-4552 6933 3355 0
3979 1630 -5841 0
7694 -2344 4309 0
1289 7167 -2024 0
1129 -227 -9586 0
4660 -50 -3297 0
-6026 -6150 1140 0
9010 -2067 -7898 0
-2690 -529 6626 0
-2111 -1135 -5849 0
-4247 -9412 -3467 0
-8424 -3041 9161 0
-3095 -6929 -8595 0
-5091 -489 9620 0
-1907 -2684 1377 0
5642 7376 -7027 0
8395 8649 -7212 0
4342 -9804 2431 0
9326 8554 -7532 0
-6332 -7760 9475 0
5930 5151 1877 0
-8204 3541 -7936 0
-83 1924 -9890 0
9716 -8150 1414 0
-1697 -2971 -9938 0
1604 -9898 -6869 0
-5840 -8635 5841 0
5717 -199 1982 0
-8061 4763 4551 0
8739 -6583 13 0
4584 -9563 8078 0
1299 2993 4545 0
2096 -5213 8447 0
3368 -1595 7799 0
-541 7057 -4270 0
5377 9824 -381 0
-9590 -6413 6901 0
-5969 -5811 8611 0
3644 -5420 -6299 0
-4259 -6224 -1113 0
1867 -9808 4410 0
2914 -7979 6516 0
7835 8313 -2203 0
7801 8730 -4778 0
-2315 -5738 -6195 0
-189 -6526 2639 0
1252 -5909 -7435 0
130 4471 -3410 0
8499 2481 -1170 0
-6608 4578 2008 0
-8024 -3026 6278 0
4966 -840 -7816 0
8116 9713 -3956 0
-8916 -5369 -6832 0
-6404 -6524 756 0
5927 -1623 -5667 0
-8051 -2431 7722 0
-8586 -9169 -5266 0
1993 3627 -6012 0
1604 7341 -4925 0
1026 7303 7903 0
3218 8136 7139 0
1451 8979 -305 0
-1515 -4451 3612 0
5410 5262 3923 0
3052 9337 9212 0
-1917 369 1034 0
-1519 683 8278 0
4956 3663 -2137 0
8556 1818 3628 0
-7573 4547 5038 0
-9819 -7637 -9577 0
9625 3036 2026 0
5734 3027 8551 0
-411 866 967 0
-8304 2111 7351 0
-9675 3486 7748 0
5303 -3744 9897 0
1011 501 4935 0
-8097 1082 -1219 0
-9146 5152 5404 0
-6755 5816 128 0
-2842 -4070 9244 0
9856 -4776 4738 0
8661 5767 -6082 0
-3087 7427 3555 0
8082 -2241 -8288 0
3699 -1543 -4177 0
6372 -3719 -9045 0
-1032 6763 -9147 0
-7953 -2104 -9174 0
-7559 1897 -5379 0
-179 -2452 -7191 0
5474 2750 -8553 0
-3310 5858 -7490 0
-7526 430 -3830 0
5667 1872 -6341 0
8437 -3776 -646 0
-6610 -1456 -2519 0
-7666 6181 9194 0
2184 -3827 8565 0
4043 8606 7366 0
-7074 8708 2394 0
2521 3814 1341 0
-834 -312 -895 0
8925 -6142 -1944 0
-8874 -9013 -4873 0
-6802 -4480 -7415 0
-2140 -5452 1292 0
4968 7688 -5453 0
-6823 -4424 1047 0
4418 6538 -1469 0
-9336 988 2925 0
7378 9122 4428 0
-2906 -2713 1182 0
4090 6716 -8754 0
-7624 5241 8189 0
-1611 9170 -9403 0
-9784 -5580 -1824 0
-9130 -8227 -5751 0
1246 6353 -2067 0
-5782 -8850 1726 0
-2682 -5254 -8016 0
-9289 8737 -4284 0
-7966 -1399 3940 0
8433 2992 -3133 0
6736 -913 9774 0
-3631 6805 8650 0
-8274 -4495 2955 0
-5383 -2963 -2884 0
-2277 -4319 2198 0
-9482 2556 1777 0
-1146 8514 3431 0
6477 6280 -642 0
-6623 4241 -134 0
-4105 8551 33 0
-5330 7957 2283 0
4294 -9630 321 0
2277 8781 -5644 0
-4394 6662 1270 0
-6618 -8988 53 0
-1111 7243 -4528 0
-7290 -8186 -8998 0
5672 1169 7017 0
-7682 -694 -9503 0
4689 2246 2639 0
7671 7799 -2303 0
-3813 -3685 -2350 0
6686 3778 -407 0
-3671 -7343 -826 0
386 -3025 3160 0
-2993 7058 5278 0
-2297 5273 2360 0
5979 -2549 2683 0
9863 -1204 9369 0
-3782 2126 3857 0
1073 4486 -6638 0
-4346 -4824 -6892 0
2983 2049 -8451 0
-3863 7560 3374 0
9856 9066 5350 0
7545 -9351 6921 0
-4194 -2020 -2730 0
7079 5502 -993 0
7036 7805 -8312 0
-8875 -9377 4545 0
2199 2455 -1437 0
5917 5243 -8081 0
-3767 9657 3969 0
7584 -4623 -3268 0
3848 2681 -690 0
-9483 -802 -714 0
4794 8831 2446 0
-2664 -7198 3900 0
2060 -7553 5041 0
-7172 -1999 -2065 0
-2256 -7779 -3307 0
-4828 3767 -2353 0
5193 1774 8070 0
7573 4072 6253 0
1483 -4195 1085 0
7550 3970 -9578 0
-5157 6695 3296 0
9381 3249 5461 0
-8815 2065 570 0
753 -1946 -9997 0
-2203 5413 -6244 0
9893 -7262 7381 0
3178 8458 -4121 0
6073 9649 1972 0
7638 -4766 3996 0
-5099 -4737 -4995 0
4459 4260 5230 0
-5397 662 8417 0
-5507 -5098 4552 0
5794 -7675 -5113 0
3626 -4639 -5476 0
7091 -7995 4543 0
-5593 1126 6545 0
8215 -7611 -1777 0
-1932 -89 -6222 0
7355 835 -1993 0
-649 574 -3142 0
-8181 -9581 1129 0
-9768 -291 4924 0
-8442 2980 -2915 0
5108 -6729 9228 0
-663 9822 2297 0
-4970 6334 -1750 0
-3220 3845 3491 0
6704 2423 -8342 0
5338 9107 -6645 0
-4570 3732 2675 0
5679 65 -9378 0
487 -3861 3246 0
-8583 -1246 7805 0
386 5040 -6770 0
9662 -6227 6346 0
4517 7813 -5245 0
912 -6640 -8995 0
-8976 4157 9186 0
-927 9308 -584 0
4428 3102 3160 0
-6377 -1110 -9150 0
3314 726 -1525 0
376 5509 5962 0
6 -272 -5497 0
-2313 -5146 -8459 0
8540 -8261 8341 0
1360 8411 -1388 0
-8993 -147 6568 0
-4549 -3249 5915 0
5841 8682 6288 0
-1343 -9567 -6670 0
-5502 450 7533 0
6095 7694 -221 0
-3710 -1564 -744 0
-2107 9992 5937 0
-4654 -9557 -1599 0
6128 4952 -676 0
7503 8876 4810 0
-9288 -9353 -6561 0
7801 -1434 -7181 0
-7955 -2648 5882 0
-3529 6663 8420 0
9526 3318 -1314 0
-6363 9781 9118 0
870 1853 -601 0
7257 -8827 8297 0
8071 6283 -8823 0
4072 -3825 -5030 0
-2820 -1390 -8368 0
-1372 2988 7057 0
-9586 -5190 1432 0
8280 -6712 7986 0
-9083 -8137 -8212 0
3626 -6761 4652 0
-6252 -797 -3776 0
1557 4383 9513 0
-9297 6868 -9555 0
2316 7660 -2505 0
-8900 -1853 -9184 0
-7456 5529 -1446 0
-2585 -2796 660 0
5596 7502 187 0
-6657 -7265 5555 0
5523 -5830 -1311 0
-1760 -3269 -506 0
2930 8362 -202 0
-9820 -6308 -3056 0
-1055 -52 -9224 0
7810 -227 -4158 0
1942 297 7095 0
6705 -6676 -1950 0
-7165 5607 -3115 0
-7701 -7914 585 0
-6368 7798 -5474 0
7140 5270 -1268 0
-864 -2001 -6332 0
7694 -2998 8412 0
9154 -8416 -8123 0
-9475 -8800 -916 0
4751 8930 -6863 0
-2371 9292 2130 0
2186 -9655 -4364 0
7313 -8346 -7195 0
4151 -734 2440 0
9108 2256 7939 0
-2132 -2993 -754 0
-4459 8156 3149 0
-6643 -9713 4470 0
3701 6413 -9633 0
-883 6556 6629 0
3303 5926 -9257 0
-2737 -1047 -3816 0
4966 -2821 4711 0
8363 -6182 1024 0
592 3924 5491 0
-1309 -8645 -8750 0
2459 -687 -7271 0
8014 3197 478 0
5008 -1898 8118 0
6683 -9867 -335 0
-5274 -4860 -2277 0
8004 6532 1555 0
9280 335 2413 0
-1852 -741 -3691 0
4530 -9653 3369 0
-8471 6454 -6923 0
-2633 -1978 -5413 0
3000 -5879 -3585 0
-3542 -6070 7801 0
7332 -8797 5691 0
-5188 -2074 8022 0
-3557 -63 1815 0
-9046 -9700 -2965 0
-4289 -8144 -5079 0
-5550 -8488 -6478 0
3513 -6037 -3249 0
6185 6695 8883 0
6423 -7877 -3038 0
132 1705 2090 0
2081 -3951 4944 0
9621 -6121 -7858 0
7484 -4239 -5528 0
-9946 4627 -7008 0
5884 1475 5818 0
-1786 2518 2721 0
8354 -2002 4150 0
5646 -7556 -121 0
4128 -9626 -5160 0
-5395 8986 -9639 0
-8788 1726 5125 0
-4536 6735 1708 0
-5821 -502 -4072 0
901 -4225 4063 0
-5992 -2749 -2439 0
5269 -7089 -6750 0
7758 -4412 9607 0
-5429 3047 8774 0
6163 -313 2070 0
-1981 9698 4758 0
9726 4651 2212 0
4426 -3342 8874 0
4120 240 8768 0
-4660 -5363 5622 0
1385 -1355 210 0
-4836 -2879 -9667 0
-935 2488 -6173 0
-680 7184 7740 0
9965 8214 -7279 0
-7055 -6048 -1808 0
5912 5060 -2318 0
8881 9928 -9668 0
-4317 5676 7351 0
2942 -8002 -3295 0
5597 4401 8961 0
-89 1813 -3780 0
2896 4488 -4184 0
-8975 7258 4944 0
2975 -1417 9890 0
-4244 4690 -9371 0
-3692 2481 -4584 0
640 7129 -1994 0
9102 8432 -9384 0
-2351 -9796 -4528 0
3786 -9289 341 0
5898 -8630 -2904 0
2432 -6231 -9339 0
-1218 7174 -2856 0
-2159 -7630 2127 0
2195 3113 1413 0
9585 9517 1398 0
-1690 7659 -2407 0
4179 2456 4012 0
1641 8761 5304 0
7507 3036 3612 0
8651 -7416 -6760 0
-1380 -7401 -2628 0
-1874 6160 5513 0
-4632 385 -6048 0
-4727 -8614 -8723 0
275 8317 1205 0
-208 8679 -3116 0
-6353 -5888 -6250 0
-6725 -7253 -8700 0
6965 5946 1018 0
-2341 -5815 8179 0
-4777 5355 -1551 0
2690 242 8696 0
4326 3030 3448 0
212 529 3756 0
-609 9010 -3921 0
5555 -8158 -6499 0
-2161 9256 395 0
-7125 102 -8823 0
2124 3756 4079 0
6812 -6249 2799 0
-606 -9247 6722 0
-1253 7467 9287 0
7098 -1891 -6575 0
-6639 -9419 6426 0
-4830 -3225 4712 0
-6730 8431 6757 0
4841 -1344 -7690 0
-9021 -5194 9698 0
-3512 -8435 -8504 0
1805 -5854 6619 0
9137 -5145 -6496 0
962 6915 -9912 0
-1305 828 -5954 0
5285 4043 -8861 0
-9900 4572 -1063 0
26 -7650 -171 0
-8826 -6358 -2816 0
-872 -383 7823 0
-5378 5294 -7531 0
8346 -8733 5443 0
929 -3382 -6983 0
-4958 9841 -5422 0
-8181 4407 -3089 0
260 -600 4170 0
-2267 -8403 7649 0
456 -4703 -7062 0
-6083 -5090 9561 0
-2943 3822 6709 0
2996 5628 -2136 0
-6238 -1990 -2854 0
-2095 -2960 9811 0
3387 958 2009 0
9315 -2380 -9578 0
9929 -9665 6359 0
-275 7342 296 0
8143 4744 -1840 0
8099 8881 4386 0
54 -3438 -6586 0
9739 -9798 4588 0
-3193 7282 -5247 0
485 4976 -3827 0
-9173 -3900 2007 0
4939 -5544 2580 0
7697 5339 -7596 0
-3432 5853 6719 0
-5199 -931 -7302 0
1867 -1995 -9261 0
2646 8554 -4286 0
4411 -2923 8358 0
7129 -1739 -4073 0
3864 4493 6684 0
8019 7099 2919 0
2997 -9306 7851 0
2547 6099 3085 0
1499 -7247 8403 0
1313 680 -6983 0
292 -8955 2257 0
-4528 9475 -9836 0
5303 -8335 7619 0
-6397 5938 -8480 0
8968 5919 -2766 0
7285 5269 -1190 0
9093 -566 -310 0
5507 3877 -5784 0
6299 6438 -3770 0
-717 -4081 -4057 0
3856 8766 -4519 0
1436 -1913 -7726 0
-8647 5343 3536 0
9255 -4360 2530 0
-1063 6167 1155 0
-2735 3130 -7510 0
3680 9585 7935 0
8984 4411 6825 0
-5507 -3643 -9343 0
-5783 -4303 -1714 0
7772 -5781 6635 0
3519 9302 -3177 0
-3741 5944 4846 0
8086 2505 4534 0
-587 -1564 8044 0
-9823 783 3299 0
4473 -6518 6056 0
8504 -9958 4614 0
419 8907 -6698 0
-4081 5212 -3744 0
-2077 691 -5548 0
-2734 -9187 -8490 0
8796 2856 -9228 0
1529 4336 -2278 0
512 4036 -9373 0
1386 -5834 -850 0
5177 -3633 330 0
-1088 5001 7682 0
3032 1643 -4728 0
3806 5894 8849 0
-2934 8757 -8797 0
5629 -8524 3970 0
6523 8718 6995 0
-3902 -2651 2748 0
7426 -5757 -7382 0
6882 9732 -9863 0
4750 -849 4985 0
1501 7194 5169 0
1216 8522 -4371 0
-2285 -4424 -4371 0
4304 5639 -4364 0
7044 2157 9469 0
-2184 2026 5604 0
4921 3658 3793 0
3833 -3882 2613 0
6311 -904 4033 0
-8278 -4318 -5810 0
-7994 -1520 3960 0
1287 7707 -522 0
9520 -7691 -9973 0
580 3474 9906 0
3516 -8857 -5048 0
8356 7876 -479 0
4809 683 -8663 0
-4394 -8646 -5947 0
7397 -5496 1057 0
8984 7232 -8600 0
-6532 -9312 -347 0
9684 -5431 -6675 0
-5112 -825 -6697 0
-2811 -261 3526 0
4153 -2320 435 0
-8721 5917 -2417 0
-8221 817 5661 0
-3076 -7447 2930 0
20 2019 8183 0
-3599 -802 -1598 0
-2915 -126 -4863 0
9823 -5159 -9133 0
9942 6555 8756 0
5649 -8576 -1983 0
4894 8571 -5665 0
-2194 4844 1030 0
-5216 -4585 -3159 0
7746 -614 -5117 0
-7059 1025 816 0
-6249 -567 6328 0
8319 4698 -8415 0
-8876 -3258 -8010 0
-658 3105 -5280 0
-2302 -1655 -5554 0
-6347 -8524 4600 0
-1164 5574 -3575 0
9436 -1830 1179 0
1997 6168 5814 0
3887 -9936 -4815 0
2816 4388 -4074 0
7467 1321 4646 0
-6888 1576 -3998 0
3548 -5926 -4484 0
-8681 -1822 -1761 0
-2671 -3999 6474 0
-219 8162 5131 0
-2416 5150 6679 0
-1808 -5757 1505 0
3980 3671 3353 0
5611 82 8747 0
9670 47 -4422 0
4595 -728 2030 0
-757 -9677 -9102 0
-1694 -4320 2110 0
8342 -8581 -504 0
-8455 2162 -8116 0
-9641 8788 -2904 0
-9160 8400 -3688 0
4043 -8593 -818 0
-7958 829 2910 0
1837 -2211 3148 0
3679 -9490 8940 0
-6540 -1439 7066 0
-3460 -1700 5195 0
8016 -8107 413 0
8780 -7705 6948 0
6750 4965 -6553 0
1598 -8173 -6298 0
-2492 7741 -8133 0
5889 6751 -8232 0
-7292 -3451 -8669 0
-4152 4128 7240 0
-7372 6481 -2203 0
4912 3166 -9982 0
572 -4493 8159 0
-629 -9613 6442 0
-7234 -8711 -1267 0
-650 4538 -923 0
-2422 4869 2321 0
-7089 2258 9010 0
2154 -3060 -2624 0
1926 2118 4920 0
-1905 -9354 -5329 0
8373 2144 4654 0
9796 4044 2116 0
4465 532 -8850 0
-1460 348 4248 0
-8968 -4057 -8036 0
-6688 -352 3720 0
-5991 -8920 -4623 0
6093 -2467 7099 0
-7831 469 9653 0
-7672 -6362 2610 0
187 5356 -8198 0
8468 -6453 -283 0
4002 -584 -2293 0
-6758 4705 3715 0
-2664 7243 5060 0
3904 2762 -7311 0
-4084 -9309 6784 0
7178 4667 1498 0
-5144 -1705 -5899 0
-8477 -9510 4808 0
-1233 4731 -2528 0
-7046 -7852 9453 0
4147 -4194 5226 0
-741 8628 -3488 0
7507 2526 -4434 0
7570 -3469 671 0
8045 3010 -8838 0
-4972 -7483 -1969 0
6702 8287 -3302 0
2481 -3498 2823 0
6177 -8223 1647 0
6979 -1924 -234 0
-8704 -1427 -9188 0
-1451 6486 -8685 0
-4928 -7736 6487 0
-2824 2627 -2856 0
4669 4176 -3336 0
1263 -2476 -4612 0
-6354 8147 3342 0
-9538 -4379 4655 0
-1286 4703 -2835 0
2132 1776 4034 0
7205 -3946 -5386 0
-9018 -9928 9446 0
-5106 8871 -9140 0
7841 -3292 7502 0
4343 -2703 -5427 0
9076 -9426 8486 0
8206 4016 3441 0
-8470 -3356 -185 0
6616 5966 -726 0
-4121 5298 3988 0
-823 -7681 197 0
-8387 -6836 -3659 0
-8594 8998 3020 0
2798 -5700 -4149 0
-851 -5020 1485 0
34 -8936 180 0
-9496 -1090 2617 0
-2174 -2334 8843 0
-3501 3834 -9910 0
1483 -8797 2567 0
-8162 6877 3003 0
-8893 -2854 -7149 0
2303 -677 6935 0
3528 -8716 -5183 0
-1771 -6834 9047 0
-4154 -6360 8671 0
4529 -7280 6208 0
-4914 -4200 1712 0
-2864 -5823 9264 0
1732 -6655 -8075 0
9740 2460 -6090 0
8224 -9287 -6554 0
-1050 188 -8134 0
-2128 5938 8290 0
3610 -9992 3172 0
-9202 8168 -7736 0
7446 -3008 -9878 0
-7426 -9200 -4307 0
6979 -333 -5281 0
-35 -8628 -5377 0
430 5072 8268 0
-5403 -4298 -7720 0
4315 406 -2286 0
9672 -9202 7421 0
-3242 -7681 -6548 0
6635 8066 3374 0
4014 -9471 1360 0
-9863 928 -7836 0
4890 2493 -406 0
9151 -3863 8270 0
-5368 9658 -9372 0
6310 2345 6260 0
1002 378 6877 0
995 4943 -9621 0
-4533 -5134 232 0
7505 -7643 2475 0
-5378 -3409 2665 0
3568 -2202 1854 0
3486 4648 8696 0
-4191 -7786 -9828 0
-7815 3915 1901 0
-9424 -9642 -7611 0
-9725 5805 8052 0
-8273 -7754 -224 0
-1140 -3018 2442 0
-4860 8127 8338 0
5582 6865 -7437 0
1430 -4918 -6377 0
3154 -3112 7146 0
-3173 -574 4778 0
1016 4646 -9107 0
7348 -6535 -4320 0
5209 4610 1318 0
602 -9990 -4718 0
6562 6006 -3371 0
-3853 -6655 -8555 0
-1252 4943 -6656 0
-9871 2876 5019 0
9527 -2879 9540 0
7285 -4800 -2556 0
-1248 3138 -7107 0
92 5622 4546 0
-396 -7017 802 0
-7202 -3940 -1307 0
-1226 -7002 -9134 0
-7612 8712 -6571 0
8418 8226 110 0
-571 -2048 -4196 0
-3401 7986 -2190 0
-2290 8054 1294 0
-5891 -8563 5660 0
5234 -1468 -2883 0
8614 -1468 8502 0
-4448 -9885 -2059 0
735 -9796 1112 0
-5670 -3804 -5639 0
8259 2103 3160 0
2339 506 -4979 0
7521 -6803 7707 0
9002 -8148 -987 0
6576 5303 -2742 0
3983 66 8181 0
-8246 -3120 1760 0
811 -8320 -6138 0
-4132 -4786 4945 0
810 5477 3332 0
3799 -7551 9883 0
9285 436 -926 0
300 -7690 -1302 0
7122 -150 -6547 0
-1636 9106 7903 0
7365 -3343 1695 0
6429 -6001 -2028 0
-9620 -3618 8434 0
-9777 9176 -3436 0
4910 4263 835 0
2455 6235 538 0
3336 2439 2364 0
-2537 8791 -7207 0
-6534 -1329 3766 0
1479 4237 6394 0
-3002 -6848 4298 0
-141 8010 4900 0
-8470 7504 -8699 0
7456 -1483 8198 0
400 4699 734 0
4663 5925 -3178 0
-4418 -832 -1101 0
-2068 6231 -6946 0
-1607 -7774 -2531 0
-4170 904 1822 0
-6267 -1105 9186 0
2952 -8381 4194 0
-3210 8817 -2062 0
-4448 -3877 -957 0
5392 -3503 7593 0
-8701 7128 -5515 0
2889 909 -3707 0
4842 9488 -9433 0
1503 1581 9106 0
9216 -7034 4860 0
9663 -9090 -3808 0
-2113 2741 9134 0
-7218 6035 -5584 0
-76 -3139 707 0
-4375 -5317 -8482 0
-1919 955 -3636 0
7943 9787 1325 0
-9591 2572 1720 0
-1324 5406 3434 0
4776 649 -4738 0
892 270 -9380 0
5308 -8583 2380 0
2544 -4762 -3212 0
3780 6053 9643 0
1327 8540 -1256 0
-3141 -3016 -8796 0
935 1182 -8408 0
-4073 -1468 -4258 0
-833 9855 -2899 0
6559 -129 8895 0
5127 -6573 2364 0
-727 -9325 8304 0
5313 3569 8401 0
-6839 -1977 -7082 0
9190 -1499 -6571 0
6045 -9969 -785 0
329 -8001 -3868 0
-7647 -1612 7686 0
-1226 -3390 -7748 0
-5974 -8503 2336 0
-2554 5651 -7561 0
6493 -7548 9456 0
5581 8928 2970 0
-9870 4906 163 0
-581 -5480 5434 0
-9974 -5822 5617 0
-3573 -8912 3836 0
8168 8728 -6946 0
-7749 8190 9305 0
-6396 -4588 7577 0
7700 -8036 578 0
7997 416 5904 0
-4320 -8685 9750 0
-1204 6789 9830 0
5394 2233 319 0
2920 7004 1829 0
5472 -8968 -6028 0
7502 -6481 1946 0
-2305 7516 -2136 0
2412 -4750 -6938 0
5125 5740 4081 0
5579 9319 4814 0
-4463 7240 6413 0
-7995 150 3100 0
1007 -4583 -7983 0
-5841 -6181 -9663 0
-2393 -6653 -6586 0
-9804 -7342 -2756 0
-4697 -4982 -7246 0
2738 -2953 3338 0
-8128 1936 -6067 0
-9933 -8273 -5401 0
707 -972 -6310 0
-9834 -3446 -1628 0
2783 -488 7786 0
5032 -1898 8562 0
-2244 2846 -8222 0
4259 6956 8167 0
4568 -6938 5032 0
-2417 9833 -5087 0
-5348 3063 -405 0
8489 8299 5260 0
-4105 5868 -3114 0
-8804 4770 -4702 0
5511 2038 8886 0
-6153 8021 4243 0
-6589 6630 -6684 0
7928 -8005 2829 0
-6071 -7089 -3723 0
-7309 4927 6666 0
-2826 4444 -1128 0
9154 -5140 -9199 0
-1865 -9766 -1715 0
7021 3337 -7526 0
5251 -8667 -8807 0
5888 -994 1631 0
-6921 9514 -9245 0
3166 824 3679 0
-3923 5762 481 0
5365 -4947 -4420 0
-7044 7473 -7948 0
8587 -3362 -2709 0
548 -7248 2600 0
-4832 4875 5163 0
-7003 2188 -3804 0
-8179 -5969 -5375 0
9354 9252 -2068 0
-5116 -3287 -9186 0
347 9124 3652 0
5671 -4857 4182 0
-9010 9412 -9651 0
5251 -831 -7673 0
-7566 -454 2693 0
-7495 2536 -2300 0
4976 -9614 9164 0
-4144 -5514 647 0
-173 -7930 4158 0
5369 -4522 -8824 0
7137 454 -8399 0
497 -6356 -9945 0
8450 2089 -8974 0
6134 -5876 -6993 0
-3378 -104 3891 0
-9451 5991 -1177 0
3490 -4619 -3006 0
8834 958 -6195 0
-3039 -7691 -7941 0
6126 2901 1666 0
-6105 2667 -1049 0
1073 -6481 -220 0
-9466 -926 -7609 0
6694 -4722 -8976 0
-2587 819 -3901 0
4600 -3082 1535 0
-5913 7380 -658 0
61 1764 -5491 0
-6288 4004 -8488 0
-8491 7832 7992 0
-266 8874 -5926 0
-4475 -8826 1093 0
-1588 -5106 4434 0
-662 -33 -1525 0
1117 5134 7465 0
130 -2667 5075 0
320 -1788 -4061 0
8150 5786 -5371 0
7376 -9712 -124 0
-7822 -4306 6828 0
9731 -435 7277 0
443 -8283 4789 0
1271 3444 -4881 0
5793 7600 -7397 0
7861 6387 657 0
-1363 -7498 -421 0
-3319 5057 -3758 0
-6954 272 2900 0
3839 2095 1011 0
-4897 4836 -8627 0
-5475 5184 -6156 0
-1608 -2189 7647 0
8929 4275 -3380 0
-557 -2547 6160 0
-3871 -1267 -5144 0
2855 6437 8673 0
4733 3730 -3528 0
1768 -4148 -7124 0
271 -903 5152 0
7411 981 -3564 0
4836 -2896 7653 0
9423 -8960 -237 0
-4037 -5570 -545 0
-2047 3430 -906 0
7985 -5450 3010 0
5399 -6115 9488 0
-1819 8408 -2799 0
-4732 113 1270 0
-2537 -6938 1906 0
9883 9048 -601 0
5780 -9914 -1606 0
-2914 5953 7749 0
-9716 -104 -8453 0
8002 -9939 -945 0
2417 -2657 2947 0
-876 8380 5881 0
-6353 -7343 -5386 0
-996 9931 -6917 0
-9724 -1828 -9609 0
-7649 6721 5250 0
9055 1532 -1000 0
5913 5988 -1951 0
2131 3687 9378 0
-5023 9555 -1743 0
-1354 -5864 124 0
-8190 -5432 9895 0
8393 -1875 4913 0
-7500 8020 -945 0
3230 -2390 5790 0
5637 -741 2384 0
-7455 6114 2227 0
-1339 -9575 -2674 0
6078 -3881 5436 0
5090 5299 1501 0
-3688 -8578 8947 0
6962 5821 -6923 0
5365 -8537 -6970 0
-6194 -2728 -7222 0
-7989 100 -1321 0
-5149 -7466 -7733 0
-4724 -5968 -8814 0
-9156 -7345 9251 0
-338 -1523 -4638 0
-3296 39 -9680 0
195 4350 8606 0
-4172 5523 7156 0
1592 -3915 -4945 0
-8587 7370 3684 0
4969 3092 8327 0
-8143 4581 -8390 0
-1525 6925 -6665 0
7807 8817 -7742 0
-2152 -2465 4547 0
5388 -4839 -7733 0
-694 -7575 -3268 0
2960 5867 -6357 0
9853 -2255 7655 0
9492 8478 -8040 0
-4811 -2959 -9418 0
-9940 5473 5155 0
4909 -5070 4332 0
7337 -3190 -1223 0
-3041 5303 -4638 0
6021 -9110 -3599 0
9568 6411 4919 0
-6978 2365 -9324 0
-7007 -1855 -8627 0
6361 9847 4759 0
-6966 4929 -1487 0
6835 -8838 -9048 0
3220 6069 2229 0
-8780 -5533 -8605 0
-4144 2313 518 0
9172 -5301 -7088 0
8932 -4558 3864 0
2670 -321 5359 0
7463 7400 -2122 0
4872 667 -3325 0
5238 5213 8165 0
-1687 1548 -6047 0
-5295 573 206 0
-3062 426 1186 0
-591 -3537 -670 0
-6537 7046 7244 0
6495 -1008 -1202 0
-2942 3798 -2543 0
-3019 4759 7106 0
-2256 -3146 7034 0
7804 -985 2525 0
1914 6288 -4724 0
-4921 -7072 -2754 0
9743 5901 -2183 0
6487 -5610 -8591 0
-1261 -2701 -4180 0
1257 3096 -8840 0
-7987 3834 7239 0
-2029 6192 -2764 0
7948 -1611 387 0
-7636 9069 -6443 0
4478 -4969 6323 0
-5761 8855 -6184 0
5119 -1305 1686 0
4998 6285 -7452 0
-1909 -8193 2761 0
9485 -9786 2329 0
-3567 -4198 7228 0
-761 -4711 -9111 0
1470 2097 5811 0
-8224 6758 6621 0
2193 -216 9155 0
-9921 -6202 -4895 0
-6664 -5795 -6137 0
-8288 -9991 579 0
-5080 -4431 5205 0
-439 1654 -2417 0
9667 9539 6423 0
7430 1427 -6574 0
-6165 4337 -3154 0
7916 1925 -3986 0
-6590 4780 -1812 0
-9687 -4044 -5735 0
2545 -297 9063 0
1912 -7263 -4089 0
-6277 -1465 2545 0
-1420 2144 -2697 0
-3715 -3605 -9664 0
4773 8501 -9910 0
-8188 6474 -147 0
-4937 6447 283 0
4228 -8762 -7912 0
2678 -4662 6483 0
-8299 5377 -4727 0
-4028 8862 -7857 0
5765 1054 2009 0
5046 3857 659 0
7436 4581 6789 0
417 -7841 4607 0
-8868 9885 -4563 0
5662 135 -2134 0
-4228 9236 8790 0
-4101 -1315 -6929 0
-5055 5008 -9905 0
-9607 9650 -3738 0
9217 -75 -8822 0
-4933 6597 9545 0
-8519 7269 6586 0
8930 -3991 -7383 0
4272 -3525 -5463 0
9684 8898 6898 0
-7486 -2386 60 0
-3076 -2264 521 0
7047 471 -6980 0
8650 -4725 -2289 0
9487 -6865 2918 0
-5863 7002 -4794 0
-9234 8214 -4379 0
2560 5427 -4355 0
-610 -5525 -8133 0
-1155 1778 4329 0
8061 8618 -423 0
-4841 -3227 -7420 0
8188 3408 2541 0
-8508 -9262 -4140 0
2101 -8209 7820 0
5021 -6008 1296 0
-9114 5947 9116 0
3768 6402 -8922 0
-2345 9118 -59 0
-5249 8522 8901 0
-1109 1397 8378 0
311 -9833 9408 0
7907 9568 -3185 0
4467 -1181 -9497 0
3206 7907 7491 0
9977 9833 -5660 0
-7727 -5082 -1437 0
-8273 6161 -1185 0
-8961 -6103 3139 0
-281 -2929 -4824 0
-6495 6681 3018 0
9412 8076 2680 0
-2671 1832 5930 0
5823 -2753 -5690 0
3237 9932 1414 0
-3276 3716 -2584 0
2605 -9697 -8704 0
-1934 4246 7374 0
-770 761 5534 0
6819 -8843 4095 0
-5140 2258 -1191 0
9232 -5350 -9412 0
7656 8304 7840 0
9532 -2775 -764 0
3890 3544 1726 0
1397 823 5240 0
5892 4045 -9556 0
-2252 -4672 -3455 0
-470 7348 -3838 0
-2870 -2760 -2669 0
2719 -3282 -2139 0
8808 9164 1413 0
3573 3697 -5099 0
7427 -4771 5825 0
-4388 -9411 -7956 0
5296 2054 6890 0
-6135 3124 7003 0
7260 6997 4509 0
1782 -3676 8373 0
-2167 -3404 -1262 0
4390 -4716 3906 0
9848 9274 -5726 0
9215 -1105 7479 0
-3206 -4673 1168 0
-5598 3264 -5359 0
-6401 -2722 -1061 0
-711 -7870 -5502 0
-5865 1672 -6843 0
-8484 -2541 -247 0
-421 -2872 -351 0
-1772 455 3714 0
-8382 4028 4944 0
1673 438 -304 0
-6043 -6160 7134 0
-4436 45 1198 0
-7649 8284 824 0
8448 1900 854 0
-4535 -3039 7429 0
-236 -3928 -8424 0
1944 4519 4098 0
7411 296 -7538 0
-8911 1421 -2368 0
6445 5581 7153 0
-2884 3048 -5586 0
-5375 2784 701 0
-9699 -8801 7417 0
-799 8934 9453 0
-4517 -547 7130 0
-6465 -4309 406 0
5905 6550 -6373 0
9938 4785 3799 0
3076 -6512 1611 0
-4952 5990 343 0
-12 840 1970 0
-9552 -7242 9393 0
-6363 6228 3451 0
272 8645 -308 0
3499 -2252 8361 0
3600 -4384 6117 0
-208 7053 -8655 0
-4135 9998 -926 0
8060 -5320 -2278 0
-5738 -1565 -2492 0
-4067 6146 -3901 0
-8130 -3624 7262 0
9878 -8148 5873 0
-5923 -6813 6340 0
-9456 -9503 -8901 0
7385 -571 -798 0
6069 -3976 -3541 0
3827 677 -8300 0
1318 -7955 -4850 0
-6932 -1686 -4370 0
8064 -2659 5290 0
-9777 926 3884 0
2531 9020 -2570 0
-3540 -820 9292 0
-2646 -1600 8608 0
-1346 9376 -3860 0
-3447 -1848 -3712 0
-1909 -5510 3598 0
4953 -9580 5802 0
7263 -2876 -6449 0
2458 -81 4881 0
-2152 321 -2956 0
5408 -3556 -9608 0
6079 8646 47 0
1328 -5897 2868 0
-7660 -2719 4173 0
4843 -3862 -1769 0
6818 -2217 -6437 0
-5180 9522 8411 0
2340 679 714 0
649 3020 8823 0
9094 5423 -1557 0
-8260 -2164 -7481 0
2567 4467 2904 0
8008 6487 -723 0
-6537 3543 -4321 0
-5273 -1857 3974 0
-6977 -6608 9608 0
-1810 -7496 9542 0
-2405 6606 -9501 0
-6990 -4334 -2172 0
-7865 -4730 9177 0
-8855 -8072 -8853 0
-7723 -4131 1197 0
7321 1265 3612 0
-7548 -7193 -3852 0
-7745 7269 -7826 0
-7196 -1134 1690 0
9951 -3740 -8062 0
-1670 -4488 -6363 0
8178 6513 -6013 0
-2645 -5290 -6265 0
2756 6059 1081 0
-7358 -2117 -6806 0
3181 3121 -5855 0
-1413 8182 2900 0
-9021 -9043 -6884 0
-8666 -8255 -5935 0
-1511 5290 3734 0
4205 3858 -869 0
9575 -586 974 0
7396 -1716 -6747 0
1105 -5180 -9898 0
5620 8701 -5507 0
4438 5910 1186 0
2618 4311 3623 0
-6486 -3051 -347 0
2268 -1868 4702 0
2308 4553 -1164 0
9533 4632 9138 0
2073 9595 5749 0
-1106 9303 4810 0
1179 9676 -9325 0
7864 7863 300 0
3819 -7747 -3933 0
-6372 -3321 -5175 0
-6451 -9693 56 0
917 -7146 -2102 0
7750 -226 7839 0
-5079 8602 -7949 0
7204 -9971 -2777 0
3431 -1339 8413 0
3906 -1758 -7445 0
2353 -4884 5482 0
-6319 -3660 3863 0
-3321 -8448 -3675 0
-2320 -6276 2734 0
-4037 -3640 -5101 0
-5334 6134 -472 0
-9870 -1002 1532 0
-708 9255 2584 0
-7117 -6755 2734 0
-368 9363 6946 0
-2043 9995 -9407 0
-6847 1675 -3730 0
9714 3652 430 0
-8505 5624 -3887 0
4770 -4124 -4624 0
408 -1849 -9642 0
-2305 -4194 -7510 0
5611 3643 5218 0
2914 -6320 -3389 0
2332 2417 1804 0
1246 2788 -7323 0
896 -77 -220 0
1119 -904 882 0
-2528 -971 1463 0
-356 -3587 5036 0
-6999 -3322 5350 0
4369 -4855 2859 0
1818 -7623 -8410 0
-814 11 -7733 0
1596 4455 -2825 0
-8426 -6308 5015 0
5952 -4675 -4587 0
262 -5101 1515 0
-604 880 -4016 0
231 174 -3498 0
-3242 7390 4014 0
-4661 7352 7172 0
-8421 8034 3826 0
7807 3966 2414 0
9572 -2310 -2464 0
4113 3117 -7941 0
7831 -7937 5065 0
-1876 -5312 -3970 0
4897 3652 1503 0
9242 9188 -4248 0
4035 7183 9321 0
-4296 -1756 -6691 0
9659 -8191 7011 0
8294 -5686 8729 0
-6649 -2518 6561 0
-1534 8101 5848 0
1787 -3849 6022 0
-2920 -926 -1342 0
1177 -146 -9620 0
-3766 -4996 4533 0
2317 7509 -6424 0
3293 5952 -6005 0
-6951 -326 201 0
8849 -6615 -61 0
-812 -1972 -2502 0
-2313 9232 -3261 0
7411 -2258 7586 0
-6459 -7931 -3247 0
-7194 -3778 -794 0
5992 -6334 306 0
-2923 -9932 -9340 0
7295 -3885 -9052 0
-3656 837 9690 0
4021 5785 669 0
5031 -7031 -2671 0
3633 9839 -1334 0
4031 2019 -9983 0
1527 5091 -6338 0
3731 5234 -1882 0
4158 14 4925 0
9230 -8818 6699 0
-2134 -6507 4157 0
5203 3369 -4210 0
-2603 8030 -6688 0
-7129 5250 6817 0
4703 -9298 -1963 0
-1822 -448 -6098 0
9784 -7723 5061 0
6334 -8998 8960 0
2169 -2914 -1365 0
-1140 941 -1056 0
3495 8408 1279 0
-3615 -2494 -3894 0
5413 4874 9555 0
4622 5555 -7898 0
-6471 -9858 2675 0
-5098 9585 -7174 0
2334 8244 5756 0
-4885 -9232 -7465 0
1586 -2966 9259 0
-6812 3615 -6014 0
-5492 -7532 -3722 0
-2889 4519 3921 0
-3210 -7866 6127 0
6420 -4992 -939 0
-9344 3331 7610 0
-4690 3893 5807 0
-3682 8371 9199 0
2202 7582 -3593 0
-361 2626 1009 0
9991 -5256 -3880 0
-5068 -2149 -2465 0
-4824 7479 -4409 0
-5802 4702 -9520 0
7926 -4677 -4698 0
8885 -3787 3918 0
1041 -37 8244 0
-7660 -9048 -5031 0
-3098 9208 8511 0
1589 -7797 -3499 0
-4450 -2215 4717 0
-693 -9331 -81 0
-8841 6718 -4663 0
-623 -223 2875 0
-5888 4172 -9852 0
6442 -5331 485 0
-7946 8505 3995 0
3153 -1792 -8363 0
4523 -3458 -6671 0
-1585 359 -9301 0
4742 -4548 5790 0
-3792 8567 -8043 0
-4440 -8607 1268 0
6966 1247 8378 0
-6351 -7981 -4588 0
-4090 -5443 2144 0
-5280 -9660 -5976 0
-3393 8269 5707 0
2771 8457 4877 0
-9760 -1020 2688 0
-6710 2142 599 0
8378 -2731 186 0
3504 -880 8544 0
-5355 -49 -2658 0
-9455 1109 2291 0
6383 -8816 3024 0
-2735 -5588 8676 0
-8268 -7134 7038 0
3421 7976 -4481 0
5595 8973 9679 0
-5148 -8341 963 0
6701 1941 8535 0
9516 -5180 9854 0
3962 -1772 1828 0
-7677 -8392 6313 0
-4740 -1832 -8791 0
4242 -6589 -1520 0
-2777 9912 -4781 0
1869 4557 8334 0
4839 651 7341 0
8017 -3145 -6424 0
-8001 -6099 2763 0
5292 3672 -9728 0
221 -1681 2770 0
1145 7249 -8453 0
1316 -1908 -8077 0
9308 5250 -5211 0
-7584 3910 9823 0
-5824 -4244 9314 0
-2903 6544 -4266 0
-2913 8493 3593 0
3938 2983 -3786 0
-2859 -7318 -1719 0
9775 9832 -5509 0
-6304 4231 4037 0
-5621 -1149 1817 0
1864 -1646 -1085 0
6645 8556 2563 0
-9866 -7772 -4381 0
9760 -420 7304 0
-9329 -4781 -9448 0
-4666 1335 6828 0
-7827 8700 -2521 0
426 4946 9067 0
7976 -450 -623 0
-5139 -9385 5500 0
-2503 -9300 -6995 0
-7185 -8474 -6895 0
-6930 -1118 -6089 0
-7392 -665 -2822 0
5513 1402 -9172 0
4117 6204 -8873 0
3864 -9787 -9890 0
8510 6190 4518 0
-2919 1933 7604 0
-5624 548 -8308 0
2573 2117 8787 0
-2353 -3990 -2297 0
5209 -2704 -9229 0
1001 6380 3121 0
1612 9360 -5494 0
6857 6864 7121 0
-6509 -2868 -3391 0
-9624 3526 -2863 0
-1038 -9982 -2864 0
-2683 -3962 9875 0
-2935 -6869 9601 0
-3423 2933 -3795 0
-9936 7999 7239 0
-8359 -25 1926 0
9296 -9261 -8028 0
-2586 -4152 -9027 0
8435 9817 -4006 0
-1237 8183 -3421 0
-9886 -2333 -4492 0
-9508 -3221 -8584 0
-3326 -146 1312 0
-4558 4028 -7380 0
-9164 7266 8742 0
3352 -6968 -1595 0
-6907 4787 -8180 0
3231 -7810 -6749 0
5776 540 4467 0
-9504 4133 5372 0
5674 -558 -6396 0
-6398 -6656 -9191 0
-1142 9161 -8735 0
6227 -1625 -8810 0
4639 -8510 -377 0
-3718 6314 735 0
6034 914 -8584 0
6562 -4784 -2411 0
7940 724 -9245 0
7880 -4392 -880 0
-6355 6 4418 0
5553 1656 -2961 0
9833 -4295 1045 0
2648 -5498 956 0
620 -7432 -9402 0
-6159 -8764 6047 0
6114 3131 -2334 0
-852 8707 839 0
2308 -6391 -8723 0
2737 -3422 9907 0
1579 -4607 2839 0
8060 6118 6056 0
-1220 -1555 -2947 0
-3776 -9033 -6181 0
2808 4675 -6306 0
-1365 1610 3697 0
-4583 6743 -1149 0
7330 -993 1579 0
2653 1521 -3271 0
3903 3068 -8140 0
3035 2983 7739 0
-2704 -9758 5834 0
6140 -5252 2435 0
-6143 2969 -1032 0
3223 2961 6934 0
3024 1791 -3641 0
2257 -7852 9508 0
-2962 -3392 965 0
8049 -6745 -1923 0
-6083 3376 3003 0
2710 4745 5214 0
-3886 -6046 9807 0
-5962 32 -2491 0
-4964 9356 3770 0
2142 7644 -9992 0
-4482 7154 3702 0
6461 3936 -1592 0
-9964 -1723 7874 0
7842 -809 9494 0
-9968 8386 8922 0
7637 -173 -6583 0
-9219 -3665 4792 0
2651 489 6991 0
5523 3384 2632 0
1419 705 308 0
9080 223 -1503 0
8734 -5373 -3372 0
-6013 -9291 8257 0
-7356 -4030 -8183 0
-3550 -627 -3293 0
-9970 -7880 6335 0
-8493 -8949 5884 0
-7305 5829 -2772 0
2949 -3650 -114 0
2306 -7951 -7862 0
-1521 -535 895 0
-8306 -5145 5490 0
-5963 6656 -9059 0
7413 -5029 -3105 0
-5092 3871 -1417 0
1000 -6831 -5671 0
3116 -4462 1057 0
-6297 -5041 1285 0
-1495 -8629 -1558 0
3780 9687 7154 0
806 5620 3550 0
3967 3329 4167 0
-4236 -735 -3524 0
-4397 2131 -2205 0
-2538 1441 4420 0
2439 4776 9962 0
-2862 5965 -3098 0
-9919 -4465 4267 0
5034 2137 -8341 0
7544 9314 -4417 0
2400 8762 -7360 0
-3938 1535 6399 0
6472 1755 -9508 0
-7263 -8516 7446 0
8209 -6226 -8942 0
-7287 -5173 3199 0
-8499 2360 1701 0
5465 -767 -9611 0
1012 1956 -8049 0
-3370 -4081 -5497 0
8987 1158 2227 0
-9610 -1391 -4293 0
-6769 -9252 -8138 0
9004 1447 -27 0
-1368 4599 5988 0
2826 -9764 9895 0
-6289 2736 8606 0
7947 -6244 2727 0
851 -7973 2941 0
9520 -1672 -1822 0
-749 -3254 -8518 0
-1264 4040 -3120 0
-1308 1347 7864 0
-1946 -1770 -7525 0
5519 -9705 3137 0
-8204 9897 5388 0
4911 -1573 -9169 0
-5988 -2686 8597 0
9516 -6239 -6109 0
-3463 292 1517 0
-1187 -3311 -7646 0
9792 2627 4148 0
-6679 8295 4279 0
-9887 -8071 -4064 0
6592 326 -5527 0
-1052 3599 -5487 0
-3372 5373 3205 0
-1644 -3644 -426 0
5793 273 -5086 0
-7926 -1925 -9806 0
-3420 4639 -2866 0
2705 -4850 -8591 0
-736 -2351 -9062 0
9500 4827 7392 0
9296 -942 -8199 0
2454 8542 9661 0
2198 8926 9999 0
-2842 -3118 -701 0
3498 -5941 -2735 0
5666 -907 -8950 0
9833 248 -5932 0
6909 -8211 -4914 0
-7461 6759 1999 0
-8326 -8447 -4295 0
6904 4198 -9569 0
7031 -7567 9203 0
8468 5458 407 0
-4626 551 -7009 0
2807 1124 8257 0
-254 9039 8502 0
-9578 2642 6337 0
4609 9262 -803 0
-1578 1812 -9427 0
-4488 -3494 -1471 0
3288 -1142 100 0
7446 -1824 -1462 0
4077 4796 -5921 0
-1367 -8830 8824 0
-9482 1242 7990 0
-2349 9415 2745 0
1599 -2617 2654 0
7737 1485 -203 0
-4274 6399 -1346 0
-202 3735 1947 0
8794 -3834 9477 0
-4131 7608 -5409 0
3775 -1394 7256 0
1287 7880 -7850 0
-4401 9303 9247 0
4390 -9726 -500 0
6700 8455 6824 0
-7637 3163 5464 0
-3712 -8743 9293 0
7360 -5691 -6732 0
-7115 5962 5468 0
-3713 -4354 -2736 0
-1468 -9632 -178 0
-739 -7910 9010 0
7457 -7741 -8755 0
9044 3196 -3045 0
115 4081 396 0
-8993 -580 -3648 0
5638 6253 4170 0
-8591 7550 7129 0
-7448 9137 2315 0
3505 -8188 -2187 0
7501 -5106 4442 0
9138 -1667 -6476 0
2835 -5166 5583 0
-5583 -3408 -619 0
2364 1987 5539 0
-1353 -117 76 0
-3375 -148 -1278 0
1858 9877 -3701 0
-8850 4445 -7539 0
-1418 -5682 -6593 0
3408 4409 3098 0
-1699 -4262 9854 0
-7921 -7777 1908 0
-4047 -1664 -8736 0
3804 -4144 7732 0
5206 -3579 9710 0
8547 -3792 9618 0
-9468 -4715 1453 0
3851 -8337 6306 0
920 6500 -199 0
-1991 -1034 9326 0
3722 -1315 -9811 0
-9985 -9373 -5116 0
9155 -191 -1048 0
6683 5647 -4013 0
-157 2004 3414 0
7061 7055 -5916 0
-1705 -4849 7789 0
-9032 -355 -1600 0
-9655 -7265 -4322 0
-7452 -8024 1852 0
-7336 -9880 3968 0
-3064 -9643 5740 0
3125 -9821 -7756 0
45 2778 -7527 0
-5422 2964 6353 0
-5435 3677 -3694 0
-8902 -7994 5914 0
-5869 1794 -4300 0
-4430 -5981 7053 0
-5133 9115 -1268 0
-3860 6427 1754 0
5126 -8249 7056 0
-201 3589 -9021 0
4475 -3526 -9731 0
5709 791 2398 0
3056 3910 -3185 0
-7652 1062 3275 0
8261 -3029 3161 0
7858 -8764 -2643 0
8090 9584 5004 0
-8470 6215 -6844 0
-738 -5391 -5504 0
4013 8440 -749 0
7509 8148 6230 0
8421 -3332 -7939 0
4910 -5738 6863 0
7418 5210 -8975 0
-4117 -4311 5268 0
-2223 -3321 6991 0
1526 1605 3559 0
-7032 -8336 -7567 0
7845 -1465 3520 0
5943 -6103 -796 0
6243 9531 -3686 0
6077 6346 -2948 0
-7778 4442 -5657 0
-5514 -671 3958 0
-4940 9473 2107 0
-7296 157 5421 0
-7376 -2232 -7721 0
8875 -9363 3488 0
-2978 6705 -6173 0
-9028 -1359 9759 0
1155 -9855 5588 0
-6200 8620 -1767 0
-572 3922 9006 0
-8332 7102 -912 0
2983 706 -6780 0
-3716 -5930 2243 0
5232 -4539 -7027 0
9290 -8033 -4438 0
4693 -2298 5292 0
-5080 1096 3786 0
-6051 6392 -6354 0
-6803 -7558 -2200 0
5209 -73 -4496 0
-3359 1964 -8411 0
-7740 -7258 -227 0
-5951 -7355 -5638 0
8635 -3311 -4926 0
-6560 -5882 8999 0
2609 1087 2628 0
7424 -1851 -5885 0
1645 9168 7812 0
-5863 2870 3592 0
2104 8433 -369 0
-4013 -8208 -8564 0
844 -5645 -5443 0
5226 3034 8801 0
356 -1801 1692 0
-2310 3703 -3383 0
-439 -4737 -4138 0
-7569 -61 8922 0
-4644 4118 6827 0
7093 2803 -6062 0
-1766 -8870 3050 0
4224 -1976 -8687 0
-891 3648 -7190 0
1090 1436 6649 0
9239 9996 -9326 0
1839 9067 1868 0
7797 -2191 8180 0
-8127 4999 9888 0
-8660 -7108 8714 0
333 5827 3353 0
5322 -4466 -2819 0
1524 -5498 623 0
8352 4964 -7096 0
1112 7230 8711 0
-7165 -6366 -9792 0
8523 -3160 -357 0
-4076 2599 3479 0
-439 8947 6122 0
5655 8927 -7488 0
-6016 4537 1112 0
4215 1392 -6601 0
9160 -3099 7797 0
-9980 8355 -8611 0
2040 -8661 -8948 0
9393 -8803 -8893 0
-7117 3166 9794 0
9322 -4406 -9138 0
9040 6340 5173 0
6227 -1287 5651 0
-763 -7241 -2480 0
5091 -2639 -9307 0
-1442 -5201 8510 0
8000 -1177 -495 0
4308 145 -9430 0
-8734 2413 4754 0
-622 -5616 -2180 0
-9376 -8002 8054 0
-4844 5417 -3407 0
-2529 7682 4638 0
-1940 -1417 -1373 0
404 2491 5746 0
-8360 -6394 -4622 0
-6388 -3465 9756 0
-1939 2754 9808 0
-7038 7353 -6455 0
-8465 8474 3316 0
-188 -9491 -5487 0
-4652 5481 -3209 0
4992 1042 -2864 0
-3615 6047 8495 0
6830 4404 -2571 0
7744 84 -7652 0
-5653 3198 1929 0
3721 -3658 6898 0
-2840 2171 -3207 0
-2749 -9906 -603 0
7455 2737 -3413 0
3039 3677 5176 0
-4083 -1797 -4852 0
4043 2567 1623 0
479 7664 -6311 0
7957 -9095 3894 0
6073 2955 -9833 0
-9169 -1060 56 0
-7117 -7093 -5402 0
-9865 -1665 1539 0
-4199 2948 6853 0
5447 -1056 268 0
1353 -136 -5560 0
9044 -3371 -5356 0
-6370 3412 7836 0
-2460 -497 7943 0
-6761 4631 7669 0
2833 -6584 7623 0
7417 7047 -6827 0
-5322 -2069 9921 0
-4196 -7206 -8226 0
8767 -7087 1930 0
-9579 5982 -4253 0
-9384 -6707 -7327 0
467 -3086 -8658 0
-239 4997 -3655 0
685 -9548 9971 0
-6517 2270 5099 0
7430 3542 -4164 0
3141 -5705 7046 0
-4115 -7517 -4563 0
618 8114 -4585 0
-833 4687 6082 0
7546 4817 9359 0
6236 -5602 -1563 0
-5108 -5225 4404 0
-6678 -4113 -1688 0
2628 -6087 5646 0
-1761 9574 -4911 0
-2303 8622 -2034 0
2808 1765 -9033 0
-2919 6149 -9709 0
-9922 3623 -3229 0
-8830 2519 2610 0
4936 4077 -4136 0
-9597 9162 2339 0
2931 4234 -8742 0
6466 -1713 1700 0
-9028 315 -7278 0
-2763 2748 -1646 0
7220 -5281 -8374 0
-2800 -1068 8079 0
-7926 1737 6277 0
4008 7141 -2219 0
-9473 -2812 1233 0
-4713 4963 2837 0
-1117 5343 9703 0
-2053 9716 1079 0
775 4688 -8602 0
2445 -1784 8674 0
9603 -547 5628 0
6433 -8350 -4583 0
-7407 1891 -4853 0
-1908 -8912 2305 0
-8195 -7737 -5270 0
9239 9351 -8783 0
6844 -6019 -8547 0
1213 7831 -2918 0
-9139 8195 3897 0
5427 5497 -802 0
-6982 -3062 6431 0
3019 2933 -937 0
9399 -7554 2362 0
4407 1002 6857 0
-2761 -6173 9832 0
5577 -7114 -6768 0
-1661 1815 4877 0
-2224 -7809 -5393 0
4773 707 -7278 0
-6492 564 -787 0
9711 6320 167 0
9034 -8367 4624 0
782 2385 -9078 0
-5751 8149 59 0
9822 -2481 954 0
-9203 6050 -5629 0
-5869 4533 9080 0
4394 6846 2913 0
8200 -4080 9623 0
-4558 6500 3648 0
-7913 -9073 3947 0
320 -9978 -8406 0
3818 -1048 9419 0
5949 8326 3183 0
-7820 -4592 -5291 0
-8372 515 -4817 0
6139 -2027 -272 0
-1997 -4024 1673 0
-6650 6477 736 0
-9356 821 6730 0
53 2318 -6929 0
5553 -6446 -4044 0
-2100 -1920 2368 0
6197 -159 106 0
-7576 -6785 -207 0
-8266 3931 -696 0
-4560 5153 5001 0
-5736 -6767 -1987 0
7463 -5189 -5431 0
-224 1276 -8625 0
8963 -8250 5485 0
4949 -3014 3723 0
-2770 -424 5456 0
8393 -7537 -1771 0
-2558 -6090 7617 0
-8724 -5793 -558 0
8958 -3759 8584 0
6199 3498 -6509 0
-7564 -8591 -5341 0
2055 -113 -9575 0
3751 -8902 -9774 0
3487 -9366 6125 0
-7508 191 8382 0
-2418 -1337 2776 0
-9483 1779 -1732 0
1172 4365 -6872 0
8858 -6983 2152 0
-4208 7909 -1703 0
9540 -8633 -1250 0
-7649 5361 5040 0
6294 6998 6310 0
-8802 286 -5521 0
916 5812 5919 0
2218 2766 2067 0
-5930 5724 -7582 0
-5087 -5761 -7584 0
-3513 8060 7944 0
-2622 2979 -9125 0
9839 8733 -4485 0
4617 -2401 -2802 0
9816 8598 -8358 0
4489 9531 -7452 0
351 9395 -8932 0
-8535 -2297 -160 0
-2825 -8894 2583 0
5671 1781 6575 0
1125 1581 6964 0
-3799 9949 8713 0
-4125 9416 2259 0
-8122 -2912 8219 0
-7057 4641 7044 0
-7468 -3334 1105 0
-6110 -5098 7360 0
2123 176 2559 0
-4354 -4471 6012 0
7716 -8158 -2642 0
7904 332 -6950 0
4660 7290 -4760 0
9179 3537 -1074 0
8569 -9612 -2694 0
9746 -2971 5215 0
836 -2114 -3496 0
-7561 8874 -2219 0
7591 2029 -332 0
3037 -63 -389 0
4742 8515 4338 0
4249 -7744 -9524 0
498 8919 -3126 0
3939 -7538 6535 0
-5643 -6585 8652 0
-3748 9332 7204 0
-591 8435 5193 0
3927 -588 -6274 0
-5756 -7583 4107 0
6989 -7598 -3021 0
8023 -126 2572 0
4951 -8251 -2629 0
7526 5748 3954 0
-7243 -3027 911 0
2876 -1213 -3806 0
-1379 4187 -8477 0
-1166 -9895 784 0
-6243 -8714 3805 0
-8715 2931 1939 0
-6463 -9986 -553 0
4344 -4255 2128 0
8686 -1014 -4075 0
-7520 2680 2563 0
1224 3629 -28 0
5159 8488 -9972 0
-6460 1203 9192 0
-3614 1414 -2112 0
6452 -4477 -9707 0
2306 -6966 -3801 0
5205 4350 3247 0
-7708 8566 -2068 0
4757 -4326 -338 0
3883 -1224 -6474 0
734 -3631 -1039 0
-6557 1505 8081 0
-6804 -9532 5022 0
5443 810 -3436 0
3927 4719 5181 0
-2125 89 9776 0
-6440 370 3661 0
-9772 5647 -5879 0
-3135 156 -5633 0
3264 -3648 9573 0
-3253 -343 5456 0
-623 -5729 -4883 0
-1141 3016 1441 0
8431 3354 -1797 0
6002 -1389 8842 0
6287 2647 1426 0
-3 -2459 -9649 0
-7337 -3488 2606 0
-1528 9587 -6206 0
895 -79 -2863 0
6924 -6313 -9329 0
7675 -5637 5374 0
-8185 3507 -562 0
-8716 -8562 -8379 0
-7929 -6924 -8533 0
6083 -9139 -8178 0
-5231 2455 -9851 0
-7263 -5828 -8770 0
4211 4660 -984 0
7094 851 -9458 0
-2699 5904 5084 0
8484 -8452 4558 0
-1871 6055 -85 0
5179 -3231 -704 0
8433 -2265 4477 0
-5096 -7230 3997 0
-96 1200 1961 0
9340 -4948 -3407 0
4201 5421 4015 0
-9043 6813 -7909 0
8468 -471 3578 0
2325 9583 9130 0
8662 8379 8577 0
8103 6042 -8733 0
9781 4358 -2868 0
-6957 -1550 -9641 0
-1983 -1775 3667 0
-1644 6441 5693 0
-8049 5278 -3994 0
1148 -7157 9806 0
-6485 3048 2796 0
7472 -6456 6038 0
-2796 8930 4328 0
579 8119 -2525 0
-1596 1024 -8457 0
-4150 -5465 -2869 0
5209 -5146 8203 0
-269 7363 6823 0
-8277 -4999 -9603 0
2632 -6994 -8986 0
4511 -6472 -686 0
4268 3954 -3078 0
-8816 6765 7284 0
3975 -9955 -954 0
-7042 -3863 3442 0
7619 2105 5440 0
-4773 5795 3058 0
8193 9283 1967 0
-557 5238 578 0
-1373 -6425 386 0
9192 -2149 9879 0
-2200 -9852 -3467 0
-882 9844 -157 0
-2107 -5874 8903 0
-5363 3481 -2888 0
-9494 -1089 -1315 0
-1717 1903 8365 0
-1412 -2511 -899 0
324 4942 -2579 0
844 9574 -5054 0
7574 -7597 -1719 0
-1788 -1626 -543 0
-4094 -5237 552 0
5962 -9336 8639 0
-1571 -332 326 0
904 9101 -3854 0
-2658 -4644 -4898 0
-622 -6807 4467 0
-8520 2472 2762 0
9701 3369 3893 0
5528 6233 9116 0
-1409 -3033 1899 0
-8663 8406 1797 0
-2356 8501 7138 0
-3435 1172 -9189 0
-1482 -93 63 0
4381 -7900 -7193 0
-2413 547 -6378 0
5571 -7412 2878 0
6819 2615 -9525 0
4803 2747 3860 0
7261 920 5547 0
2215 6642 5154 0
8523 1664 -2846 0
-2251 -9550 -1443 0
-3825 362 3652 0
-8063 1036 2349 0
1325 9270 -7141 0
5297 -5160 -6938 0
-806 3650 -302 0
7430 -2135 4699 0
-6357 -9784 5726 0
-6172 -6616 1221 0
-9407 -7770 -5628 0
-4962 4024 -360 0
-4148 -5684 8157 0
-3754 3340 -3027 0
-5537 9242 -6485 0
7437 9 -918 0
4758 6911 2982 0
-670 -5624 -5665 0
900 -3595 1771 0
5497 -8269 -3365 0
9580 -1372 8196 0
-8989 -3597 -8948 0
1209 -6472 -9938 0
3739 -9811 6521 0
8623 -8902 1717 0
1150 -3767 8991 0
-6317 4577 -1931 0
663 9510 424 0
665 -8878 -1272 0
3203 -1105 3447 0
5124 -1446 7298 0
7581 6922 -8944 0
-8076 9693 6889 0
1770 -9667 2077 0
4080 -5827 9350 0
-2796 5070 -3287 0
4377 6239 7497 0
-7003 -326 128 0
6829 4947 -8073 0
-2171 -7361 6087 0
-7129 -6841 6570 0
5650 2056 -1916 0
-4122 6937 6310 0
6751 3049 -2469 0
9762 -3810 -4506 0
-6811 7175 -7879 0
-5828 1789 -1990 0
7442 -8951 -9972 0
-5844 -3426 -2761 0
4086 -4343 -2258 0
-3000 -1294 -1509 0
1290 2933 6363 0
-5170 4796 1736 0
-4876 8252 6728 0
-4849 5422 1540 0
-8425 -6878 4827 0
-3853 -4928 -1912 0
-8145 3066 -9927 0
-7373 -6770 2497 0
2147 -8710 -4501 0
9783 4783 4676 0
2131 -7968 -3533 0
1454 4459 -8004 0
-9712 -4281 1340 0
7421 -4093 -5842 0
-3125 882 7037 0
2646 -7579 -6282 0
-6253 7564 3718 0
-2283 5791 5972 0
-7427 -6399 7834 0
-1440 8325 3320 0
9708 2489 -3011 0
-8438 -7193 -5394 0
-4723 -8151 -1109 0
-5911 3643 3518 0
6882 -2038 -4650 0
4304 -2717 -2532 0
5890 -5266 -9291 0
1304 -416 -2237 0
-8060 -5340 -973 0
-714 -4354 1642 0
-7528 -6542 -417 0
5567 -274 8552 0
2993 9807 1577 0
-5063 3961 -9173 0
6427 4349 1653 0
3091 -8203 7179 0
2509 1406 -1160 0
-9302 -5859 142 0
-1197 -8863 -3996 0
-7697 -8505 2094 0
-7180 -9747 -1011 0
-2659 11 -4098 0
3651 -7792 -7887 0
-5195 550 8458 0
4669 6528 7089 0
-4534 834 9430 0
-2262 -9954 8637 0
8249 4739 -6370 0
4788 3919 -4723 0
4202 -1150 -3456 0
-7388 -9158 740 0
217 295 6774 0
-3668 -1948 489 0
7148 1288 4950 0
2953 -1845 -2665 0
-4926 -1276 -7364 0
2163 -1725 -9065 0
9426 -1435 2927 0
-4214 -1747 -9691 0
-9061 453 -9912 0
7872 9108 7932 0
4586 -5472 -4401 0
-3085 8642 -8147 0
-2107 4906 3502 0
-4616 3790 -2782 0
7506 9474 4833 0
-7702 5405 -9968 0
-2820 -3249 -1643 0
1804 3046 3691 0
-5320 3527 -7949 0
8646 -673 -1992 0
6881 8241 -3755 0
5517 -9495 -8501 0
1133 -9367 4757 0
-2517 3905 -5063 0
-4925 -8679 7025 0
8703 9785 332 0
2102 -2613 2121 0
1449 6894 1794 0
8646 -4491 8434 0
1060 -1865 -3 0
5116 -7590 6198 0
2826 8375 -4948 0
8788 1788 -3731 0
-4361 222 3358 0
-5944 -5789 -6435 0
-4664 1980 9793 0
4656 -6571 1276 0
-9632 2351 -2639 0
3100 1146 2211 0
1680 -2750 361 0
-5825 -1344 1043 0
3748 -6341 7805 0
-3554 -7145 -6059 0
-2110 -8879 5486 0
497 7133 4960 0
5349 -3742 -2241 0
-7202 -721 -5900 0
5155 -6773 -4332 0
-4459 5139 9545 0
9926 -8910 -7550 0
4767 -1233 -3696 0
-4259 3113 918 0
5019 -6840 6176 0
5328 -2008 -1361 0
614 -1396 8004 0
-2678 6614 6119 0
-9883 -3464 2979 0
-8441 9957 4456 0
3096 2327 214 0
-7737 -4359 -4673 0
-8160 -6795 1400 0
4779 -9246 -6948 0
-1783 -1024 -3302 0
9474 -4970 -8565 0
4201 -6141 -5236 0
4089 -483 6411 0
-7890 8442 -5531 0
5323 7001 9557 0
-7145 2223 -977 0
-708 -2579 3012 0
7945 -33 -1154 0
6820 9472 -4438 0
8517 -8323 -3410 0
3040 991 -2539 0
3662 3329 2331 0
5044 957 -4180 0
-4418 9469 -581 0
6992 5440 -8395 0
8020 -4731 -812 0
2304 -4229 -6867 0
2440 2649 3380 0
-7018 4412 4205 0
1201 -536 7858 0
9587 -6975 -8349 0
-9390 -7465 -3506 0
1328 -6810 5062 0
-8629 4346 -7098 0
-4785 2380 -8796 0
-850 619 -2167 0
-6870 -257 9261 0
-9687 3668 -8466 0
-1993 1041 4316 0
-5859 -2912 835 0
2709 3372 7682 0
4722 -6092 187 0
-7923 -6939 1847 0
5946 -9322 -912 0
-1742 4029 4403 0
-7133 338 -9836 0
3305 9973 1684 0
2803 -7947 3471 0
9834 -2986 7594 0
4422 928 -4960 0
-4885 6928 -9627 0
-3503 8375 -2239 0
2822 7099 -8721 0
-8164 -2034 5944 0
-9504 -6703 8151 0
-6651 -5352 -9453 0
-7839 1489 8724 0
-2016 5387 -6865 0
-6328 6194 -5224 0
2208 -4717 1914 0
-2218 -2726 -1283 0
6854 -9541 1049 0
-6116 -9854 8104 0
407 -4816 8083 0
1584 8306 3342 0
1669 4216 -2229 0
7249 -4513 -7588 0
2840 1520 9207 0
7405 -2466 3422 0
-247 -9199 2751 0
2979 9081 -6070 0
6244 3138 3141 0
8005 1061 -6153 0
-1040 3686 3830 0
-6092 5115 -7646 0
1126 451 6220 0
-5731 -5766 8721 0
9805 7470 1524 0
849 1312 4978 0
6625 -5867 -4963 0
2630 6523 -2975 0
3531 6197 1920 0
-7067 6436 4542 0
-2617 7443 -6888 0
6235 7311 9529 0
-5250 7846 -7279 0
2813 2248 9116 0
3318 2385 3383 0
3307 -9595 2217 0
5612 -9972 1662 0
1277 9853 556 0
-2567 -1773 -1693 0
7578 -8084 179 0
-4644 8467 -5009 0
-9519 -9368 -5751 0
7683 6363 -5846 0
682 2264 -6000 0
-2220 -7554 -9515 0
7606 -5161 -759 0
-7145 4388 6414 0
-6439 -7043 -6628 0
-9009 1866 8930 0
-2765 8514 7703 0
4765 5124 -6086 0
8121 3606 -1272 0
-6684 -1692 4279 0
-8576 3848 6158 0
4516 8262 9770 0
8654 -4773 7422 0
2391 8758 7345 0
-8087 -9342 -3041 0
-8728 -8196 580 0
-4852 -5284 -1709 0
-4799 -9491 1560 0
4995 1370 6976 0
2907 -5861 2860 0
2779 -1458 -9452 0
-878 5129 -2868 0
4207 2208 6290 0
-5009 -8708 -58 0
6955 1869 -1644 0
-9238 -3471 4103 0
1496 -2358 -3973 0
6630 -7486 -1809 0
8144 -7689 9035 0
1185 -6362 -4718 0
3325 2797 -6183 0
-5644 -2451 8768 0
-9556 429 2748 0
-961 3862 -749 0
-5665 8146 -9260 0
-4208 5345 -3398 0
-4055 -6857 -1518 0
6163 3282 4502 0
-3996 2385 -487 0
7039 -8868 9655 0
3236 -2637 -2417 0
558 -2429 -4259 0
-9550 7288 -8361 0
1642 -5701 -8928 0
-7190 -7055 -6678 0
3337 5168 4320 0
6673 -2687 -6600 0
9218 -6637 5414 0
8299 243 8915 0
-5052 7340 -5649 0
-4060 -7679 -8804 0
-9427 3498 9043 0
287 5918 4924 0
1096 3548 2098 0
6655 -1057 -7991 0
1933 815 -9265 0
2974 -7011 2052 0
5502 -7412 -2987 0
-9127 7262 1722 0
-2795 -1072 2722 0
-2964 -2450 921 0
4444 -3699 -2160 0
5304 706 -6583 0
9704 9452 -4337 0
6178 9114 1102 0
-6723 -1662 4132 0
2812 5386 4340 0
-7034 453 -8270 0
-7551 8356 -2562 0
-9601 -2881 3983 0
-5797 -4377 1127 0
-3567 -5696 3852 0
4650 -3067 -5794 0
1719 9934 5881 0
7602 -8719 9516 0
-6265 1606 -8186 0
-563 -8182 -1906 0
-2844 2703 5021 0
5836 9516 -1140 0
-2322 9184 -6191 0
-9610 -419 9351 0
-6724 1469 -6428 0
4683 -6646 -4897 0
-4850 3670 5058 0
-8392 -9261 -3782 0
-1770 1773 -1387 0
8763 2394 -5835 0
937 -1001 1146 0
-2923 7083 -5680 0
-3066 7865 -9518 0
7492 5657 -2275 0
-7154 -3943 2958 0
5872 -7142 -5838 0
6453 -6573 -8065 0
3585 -145 5565 0
-7763 7460 -7883 0
-9611 7894 -7951 0
-5024 6943 -2351 0
3272 -6806 -2476 0
6844 8098 -9182 0
-4898 -3033 8813 0
-9879 2138 -5223 0
-7128 -9357 3248 0
1474 6946 7280 0
-2735 5007 -727 0
-7809 -3305 7790 0
9450 5883 2723 0
4666 359 -279 0
5501 -1483 2502 0
-6199 -2272 9710 0
4397 -7984 4264 0
-1000 -2264 1633 0
-3235 2280 2586 0
6670 414 -3559 0
-1899 -4208 4517 0
-6840 -1414 -645 0
-2144 -7454 -251 0
-1707 -9100 786 0
-9426 -2059 -3880 0
-2292 3476 -3167 0
4875 -4850 8196 0
-6509 -2576 7142 0
-971 -315 -4083 0
5767 5162 -7538 0
6133 -7940 -7733 0
2135 -1687 -8539 0
-4323 3542 1612 0
8627 3963 7967 0
5932 -8137 7306 0
-3174 -1037 -9157 0
-8274 1211 3833 0
-9352 6156 4662 0
9435 6512 -1126 0
-2928 455 289 0
-8888 -8154 -6320 0
-9426 8029 2572 0
3160 -8623 -8874 0
-4496 -3904 -2146 0
-4884 -4910 9798 0
3650 4196 2386 0
9014 3698 -4992 0
-2055 -3378 -3555 0
-549 963 -4610 0
-2894 5197 9220 0
-8060 9277 5248 0
-2306 169 -5407 0
1420 -4787 3883 0
9134 -8118 1279 0
4823 4592 5175 0
7454 -5108 3369 0
-4520 7421 -9184 0
-6060 -8284 7376 0
-1639 -9859 2629 0
1955 5837 1138 0
-3773 8559 2240 0
2968 -5802 8882 0
-5639 9554 -3212 0
-1548 -8701 -6946 0
6121 -379 3290 0
-4830 -544 4979 0
-4817 -337 9534 0
6324 6178 -1619 0
4817 -7827 5063 0
-2782 6360 100 0
-8821 1221 2478 0
8242 -2786 -1848 0
-4992 -5547 -7166 0
-9312 -9057 -2650 0
2243 6194 6006 0
7209 7872 -5387 0
3718 6493 6827 0
2125 -271 -3764 0
-743 -267 -6891 0
2258 4635 7906 0
4581 -4875 -4141 0
4672 5864 -2695 0
-1591 -4473 -7161 0
9954 599 5166 0
-1052 6684 5153 0
-68 -3289 3410 0
-1719 -1916 -4217 0
-1924 -6800 748 0
5360 -7010 -6086 0
-6394 -2157 -3077 0
3464 -5410 -786 0
-5325 -1519 -2963 0
-5824 -612 660 0
-4719 -3210 272 0
9036 8812 3604 0
-9779 -4791 7893 0
-6578 5398 -7493 0
7649 1119 9800 0
-5848 -4525 -8146 0
-2433 1897 -5922 0
-3153 -1603 4262 0
9150 -568 -9879 0
2504 -5769 -8143 0
-1053 6438 -6977 0
-1099 -5704 5384 0
808 -2622 9074 0
-1701 -7499 434 0
2677 -6611 -1622 0
1302 4259 -5165 0
-7647 -9635 -8979 0
1747 -9620 -4384 0
-3709 -6817 5208 0
-7373 5435 1470 0
6720 -6942 5943 0
684 4963 2893 0
-3391 -2122 -7691 0
-1641 4695 -987 0
-6007 651 4309 0
-6914 8605 8780 0
-6268 2641 -4386 0
7999 -9616 4778 0
7991 -8107 3649 0
2125 -2253 -473 0
5636 -1144 7860 0
-3349 -1705 4629 0
-1854 4784 -9681 0
5012 -3449 -99 0
6003 4985 -2916 0
7037 2569 5140 0
8423 3106 -687 0
-9808 340 6173 0
-9990 8378 472 0
8754 2361 -9235 0
-2733 7028 6986 0
-3427 4645 -7273 0
8562 -3450 7972 0
-4664 8694 3103 0
2985 -600 -7043 0
7932 6133 2361 0
-5755 -6601 -8817 0
-7987 -7387 -9996 0
-9852 -8375 9691 0
-6046 9634 -8135 0
-7494 8061 -179 0
5154 -4143 -6592 0
-6003 -4191 -366 0
2506 -2729 -4732 0
4548 -7219 3959 0
6751 -5068 -1734 0
-7192 7160 7032 0
-8024 9302 1861 0
5991 -7161 -1903 0
5669 1954 -6961 0
3703 -7220 2588 0
5215 -8711 6014 0
3415 9278 3660 0
-8894 -9354 4637 0
-7422 -9101 -772 0
-2774 4549 -292 0
2115 -6339 6316 0
-2936 9158 -8408 0
3718 9869 -8743 0
8736 -5211 -880 0
5198 8907 -4239 0
1024 -9108 1904 0
8322 148 -4711 0
8024 9401 -9927 0
2919 5210 2124 0
3732 -7759 5942 0
5149 -3992 -93 0
2953 5072 323 0
-3738 9651 -5808 0
-1141 -713 8109 0
7004 5340 138 0
-165 6911 -3013 0
8951 4176 729 0
-8923 -7854 1823 0
-7401 -8085 -3368 0
2986 -3870 -7037 0
-3725 -1749 9008 0
4915 -1419 -8903 0
-256 -6506 76 0
-8642 1268 -244 0
2234 9065 824 0
-613 -7739 3063 0
-6166 -7688 5536 0
7302 2970 -2036 0
-4401 6322 8067 0
7233 9040 -4127 0
-5866 -8174 5761 0
-5626 -1546 9170 0
-6017 285 -6031 0
4074 4939 4291 0
4594 9783 -9264 0
-299 -8113 4781 0
6607 -8666 -2391 0
7904 6862 -7149 0
9806 2449 -9731 0
7986 9998 7555 0
712 3845 4081 0
-3648 -7345 -5417 0
6423 8747 9775 0
2967 -2198 1589 0
7833 559 -8526 0
6083 -6630 -8573 0
6915 1292 -1479 0
5798 -5742 -87 0
-1632 4362 -6198 0
-4313 -350 -3919 0
-6935 9622 -6003 0
-1938 921 -9752 0
7942 3173 1992 0
-9985 1605 -5975 0
-5622 7198 -3264 0
4968 -9726 -9984 0
-4580 5921 8530 0
8683 4208 5483 0
-202 848 2717 0
-3645 2302 1963 0
1511 7137 5016 0
-3591 -7507 -5027 0
5230 5856 5804 0
-8722 -7092 686 0
1173 -5276 2465 0
-2995 -4792 6781 0
5632 -4708 3003 0
-7266 -7553 5049 0
-5659 7737 -5654 0
5736 8984 -6281 0
-8781 4429 -859 0
-1406 -4235 -6913 0
-146 9685 8133 0
-1798 -8827 3133 0
6906 -172 8246 0
7239 4366 -4271 0
-7335 -7787 212 0
-6930 1556 7152 0
3560 3754 1922 0
3448 -28 -8470 0
896 -9960 4355 0
-3495 -9396 44 0
6455 -4867 3991 0
3492 -8168 -4883 0
-2502 831 7151 0
3554 3451 -1791 0
4004 -9151 6328 0
-6894 4971 -7524 0
7667 3917 -1919 0
-9162 9541 2992 0
814 7160 -5093 0
-7128 2539 -9215 0
-2366 -409 9726 0
-8030 -1766 -6605 0
3529 827 -289 0
4865 -8325 -3248 0
1007 -6059 -7330 0
-1458 15 -9077 0
-2182 -4271 -3498 0
6578 -9918 9879 0
1464 -1053 4428 0
4394 4904 3823 0
8530 2241 4832 0
2606 -5955 -4213 0
-9430 -5205 2535 0
-8320 -7560 7503 0
-3810 -3762 -1737 0
6618 1155 2899 0
7977 9937 -9922 0
-7741 4461 -7699 0
1708 6011 -5371 0
-9537 3884 -7992 0
8294 -1303 9739 0
3664 2797 -1533 0
7380 3331 7917 0
-3298 -2741 -8059 0
-6330 8071 3126 0
3820 -1336 6867 0
-4308 -7676 4148 0
-3151 -5332 -4793 0
2284 1753 -3235 0
1425 299 -2925 0
-3972 -3635 -744 0
-8904 3264 -9514 0
-3551 -7783 -4226 0
840 2908 -1331 0
5081 -5436 1445 0
3508 4966 -7377 0
3995 3265 4570 0
6407 -6533 -5705 0
4375 1930 -7901 0
7252 -4348 889 0
-3943 4655 -9512 0
-7398 -119 8998 0
-789 -7506 -2111 0
7549 5442 -4041 0
-232 1234 -954 0
561 5149 2461 0
-7344 6399 -3517 0
-9428 9744 3388 0
-1949 1922 -2783 0
3322 9784 -8151 0
-2627 -1390 5922 0
8967 -7339 -859 0
-6548 397 3166 0
-30 -6764 3735 0
2363 -3860 -5858 0
-6088 -8822 -2597 0
8305 5987 -5022 0
-7751 -1285 7940 0
9670 -7441 9656 0
768 8558 9637 0
-6052 -6825 2453 0
522 1496 9925 0
-1577 3420 6536 0
2348 -5877 -9817 0
-2950 4406 -3657 0
1593 248 -2113 0
5722 3611 9416 0
7094 -956 7135 0
9973 3273 1781 0
-5435 -669 6116 0
1656 6552 -4450 0
-3174 7495 -9601 0
-4139 -2491 -7493 0
-7424 -7726 -347 0
-5446 6752 -3839 0
1694 2583 5355 0
-4795 2690 -8019 0
-4038 2664 5546 0
-5727 -4421 -5612 0
-5180 9282 -2346 0
-6456 -3518 -8198 0
-591 -170 2705 0
-853 5644 -6972 0
3853 -129 -4978 0
-648 -4132 -1382 0
-5077 -2852 -6363 0
-2749 -997 2944 0
2341 2325 -3975 0
2998 5620 -2126 0
3475 -3140 4757 0
9563 -9616 -4487 0
-4380 8381 -8632 0
-6259 -9850 5679 0
-4983 -1606 7241 0
-5910 1135 2237 0
9844 -5961 3016 0
-1382 7157 5421 0
-4952 4751 6426 0
220 3438 1898 0
7073 6823 6058 0
7329 691 5900 0
-6376 1720 510 0
-4462 -3256 6981 0
-9932 -9381 -5443 0
-5853 1884 5797 0
-7284 9166 -7972 0
6033 -6641 -4902 0
-9982 2007 -663 0
2021 6707 -1417 0
4234 289 7359 0
-5435 -1066 -7029 0
-128 -4684 -8699 0
-9831 -348 -8900 0
8370 -8820 -3750 0
-3741 -6661 -1720 0
6276 -2928 4991 0
-4665 -4446 -4880 0
-3594 158 4797 0
8698 3361 1371 0
-720 -474 1193 0
-851 2310 -7476 0
56 3609 7669 0
-8035 -6086 -7434 0
5468 4040 5292 0
2495 -2756 -8903 0
-7808 -9780 9822 0
4812 -6549 5335 0
-4535 -4498 -4161 0
-2865 -4928 4654 0
3176 -8201 -9952 0
-3815 1824 -1181 0
5656 8183 7953 0
-2350 -433 129 0
-2397 -2359 -4417 0
-1626 4609 8647 0
-1117 -2194 -1902 0
-4617 -722 -2765 0
9063 -4729 1802 0
9640 3764 -4876 0
-2527 -2323 3631 0
7542 9004 4786 0
7065 -3319 -9468 0
1793 8683 -2320 0
5492 5570 -1878 0
-6604 -3300 -8267 0
-9728 -504 4168 0
-4343 8559 9130 0
-1680 -4692 9346 0
-3159 2004 6640 0
104 3794 -1441 0
-2708 1585 -9022 0
2749 -2297 -4557 0
5028 9461 8396 0
-3924 7522 -9094 0
6402 4321 5482 0
-197 5480 8477 0
5390 6761 -9870 0
6253 -3203 -7831 0
-6533 9760 -3370 0
-7776 7410 -2900 0
6928 -8371 -3210 0
-8214 3742 -6361 0
8712 4937 390 0
15 -5789 9640 0
-6222 6417 -3532 0
8625 4599 -5090 0
1638 4388 2916 0
241 -5184 -1572 0
-8389 3629 -8897 0
1019 6506 751 0
-1088 -369 8883 0
872 -7171 -8036 0
-6852 1038 -1263 0
1203 2030 2230 0
7013 5269 -2522 0
4490 5960 48 0
-8815 -821 -2327 0
4326 -5721 -8049 0
2309 -1488 1814 0
771 -3285 -3442 0
721 -2739 -9161 0
3367 8821 -3544 0
3259 6009 8138 0
-3178 4977 -2155 0
-1183 -3016 -9745 0
-753 -6646 -3990 0
-1166 2401 5415 0
-3687 -3907 -9308 0
-5880 -6552 5051 0
-8930 -2007 -8326 0
-1728 -9014 8537 0
2677 -985 -5499 0
-4830 -8627 5791 0
3699 -8350 6695 0
4424 -6361 2488 0
-7684 5201 -1581 0
-6693 5547 -3395 0
2978 4255 2253 0
8185 -2788 -5436 0
-8265 6195 7053 0
8896 -3873 2265 0
-9211 259 3776 0
9285 7539 -4693 0
-6356 -9934 539 0
1022 5920 -5922 0
4017 2311 -1702 0
446 -3899 852 0
-2457 -9877 -848 0
7226 -784 -7492 0
2382 -8861 -3081 0
6638 237 641 0
-4358 9683 8717 0
6763 2313 -3991 0
-7455 3354 -6635 0
1379 2536 7894 0
9057 -1392 -8992 0
-4122 -7300 -5927 0
9583 -7474 8455 0
-7457 6426 7233 0
7871 394 6992 0
9438 6677 8612 0
-8291 -9573 -2669 0
8222 2874 -5607 0
-9566 -2129 -5492 0
3618 6786 -9841 0
5537 -1803 -1664 0
4811 8837 6474 0
877 404 -846 0
2025 -5100 3132 0
-1127 -666 -7529 0
-3042 2612 6541 0
2680 -5578 8345 0
-7831 5525 576 0
-2998 5604 7448 0
8709 -2813 -5503 0
708 -4333 -8425 0
-6377 -5480 -7143 0
-1097 -1293 -5062 0
-6144 2540 -4088 0
5353 927 4115 0
-6745 -9035 -8474 0
-4071 -661 8170 0
2636 -7989 6416 0
6369 1364 8306 0
9759 -3439 -4577 0
-7636 3005 17 0
4455 4883 4636 0
9158 9624 -8068 0
-4948 8435 -7239 0
-7896 7909 -8411 0
8248 5156 526 0
659 9944 -6049 0
1766 -1952 3969 0
1292 -9717 -7074 0
-8977 -4271 8407 0
-1165 406 1098 0
4828 -6295 -2131 0
6009 -5482 -6108 0
1878 -1427 4830 0
-5617 8826 876 0
-7722 -5629 6274 0
1980 -5504 2249 0
6105 -5326 8806 0
287 2481 4717 0
-9605 9331 -672 0
-8288 -2118 -1662 0
7250 -5386 -3032 0
-8382 -6401 4141 0
-1045 -7060 3328 0
-1611 7749 -4123 0
-2374 -1007 5282 0
6070 6530 1831 0
2148 -5614 2193 0
-1898 1970 928 0
-9131 -4277 -4630 0
-6063 -2726 -2976 0
1331 3556 -6530 0
4338 -5047 5373 0
5095 3288 -217 0
-9118 -8864 7427 0
7324 -1472 -6846 0
-592 6934 844 0
-7472 -1524 1419 0
-9151 4745 828 0
1277 2308 8216 0
-2429 7168 7704 0
-5188 509 188 0
3606 -3252 -7853 0
-8085 -3095 4608 0
2801 7869 8518 0
1119 9044 -5637 0
-2283 6428 -3134 0
-62 3332 -1391 0
1892 -5415 -8352 0
7342 4252 3033 0
-7066 -1698 -4208 0
-8126 -3304 5213 0
-9110 9662 2514 0
9223 1843 1984 0
9046 7119 -9702 0
-3255 8220 -7846 0
-9397 -8689 -9395 0
-8290 -3260 -2902 0
4427 5061 8946 0
409 -8334 5298 0
-4724 8550 4438 0
-1511 8124 -370 0
1482 6861 8116 0
7790 -7603 -1654 0
-3631 3527 2028 0
3471 6793 9560 0
258 -6279 -2235 0
2874 -704 1569 0
-5417 -1881 4736 0
-379 -6585 -5212 0
-6066 -1229 7342 0
-1574 -7209 -4348 0
7846 -3146 -2509 0
7622 -4879 -2255 0
-4568 8217 -8867 0
-7940 7926 1402 0
-3158 -8433 4194 0
-6343 -3585 6659 0
9761 -9945 1110 0
9601 2632 3199 0
3766 -924 3540 0
4827 -2453 -903 0
-7436 -44 6279 0
-8074 -6543 3722 0
-5984 -7713 -1055 0
1074 -9200 -1098 0
-3322 3883 3894 0
947 8239 713 0
6859 -2545 140 0
3877 5879 2544 0
-5899 2054 -4067 0
6481 2638 6068 0
5294 -8392 3833 0
8497 -986 2727 0
-4112 -9028 -3512 0
-7667 -891 -4729 0
-5833 -5879 -6405 0
-801 8767 8299 0
-3017 -951 7328 0
-4923 -7303 -7257 0
-563 -2345 1893 0
8338 9643 -5478 0
-1691 -7126 5576 0
2091 -132 -2308 0
5424 8466 5264 0
-1016 -8436 1226 0
-3328 -9189 -229 0
8064 -1156 2561 0
5474 7470 3950 0
6096 -5258 3539 0
-9122 -1218 -1493 0
1295 -5839 2203 0
-1736 -5691 7176 0
-1077 6055 -1660 0
5423 -8025 -9967 0
-8508 7261 -7149 0
7942 6473 8411 0
8082 -7802 3698 0
-4075 -6323 8069 0
1209 -2418 -3591 0
-525 8622 -9662 0
-8450 4160 5197 0
-148 -7386 -1084 0
8403 -856 5001 0
-8775 7722 7622 0
638 -8206 -7052 0
-119 -4284 -210 0
8138 7833 9235 0
-879 2779 1120 0
8983 9326 -2707 0
6070 6149 -8636 0
7859 8394 -2571 0
873 6775 7601 0
-3921 2973 -3669 0
-4849 1155 -667 0
-6707 888 9950 0
-1607 6512 9891 0
8204 6117 1879 0
7943 -314 -1881 0
-7142 -1869 -1926 0
-5314 -6664 1388 0
-2262 1658 -595 0
-1243 8507 -3500 0
6192 -3418 4556 0
-5101 -9647 -358 0
-1851 8654 3954 0
5702 -5230 -6593 0
8774 7108 641 0
2002 -2851 -4712 0
-299 1293 -8114 0
2803 -1283 -3041 0
-342 6177 -435 0
6122 -798 7178 0
2168 4101 270 0
6026 -4451 9385 0
-1509 -7454 7174 0
-9788 82 -1824 0
3510 9674 2588 0
9953 -5340 -593 0
-4727 -3008 243 0
508 2946 -4311 0
-5268 7478 -6343 0
-2430 7669 5590 0
-4357 -8281 8837 0
-9350 9766 -7197 0
-3734 8955 3581 0
-114 5433 -5244 0
3 -6279 4969 0
1618 6937 -329 0
-7351 -5999 989 0
9227 -4199 8007 0
-4508 7198 -4631 0
-6710 1111 -978 0
-6145 5725 -6625 0
-4826 4237 9411 0
-7665 2211 8913 0
7675 3667 -7087 0
2632 3195 -3424 0
5352 9523 -8282 0
1458 7947 -7612 0
-9120 -1321 -3393 0
-9116 343 -7373 0
2387 -8314 -3991 0
-6125 5570 -2209 0
-7902 3063 -79 0
3872 4197 -9745 0
-7077 1841 6117 0
-4635 5760 -998 0
2755 648 -1597 0
5958 -3195 1864 0
9648 -9288 8480 0
4776 6509 9953 0
-1523 -6732 -8861 0
545 8537 -6023 0
1653 -4371 -6441 0
5865 -9441 -9563 0
-2949 -394 4730 0
4999 -9988 -7912 0
8120 947 8831 0
-7060 -7356 1579 0
8526 -2972 999 0
-4926 5258 6274 0
-5527 19 9644 0
3800 -5977 8284 0
4643 -6572 3053 0
-1103 -2029 -4620 0
5160 3238 -900 0
-9019 927 -5544 0
3290 -5944 8488 0
-9148 -9342 -9905 0
-1622 -5930 -3273 0
-9413 -3282 3439 0
-3806 -1219 8090 0
-9018 -9109 -1612 0
-4614 5159 521 0
-3652 -5838 -6751 0
3846 -3581 -6277 0
4045 -291 2073 0
-6820 -3960 -2689 0
-8825 -2427 1583 0
-4424 -3370 -7658 0
4093 -9308 2149 0
250 -821 -1952 0
62 8804 -3035 0
4832 -4209 206 0
-1182 -1910 7805 0
8816 2921 -3840 0
-5810 8798 -7411 0
-9260 -9439 -5821 0
-3269 -2417 -6318 0
-1119 6170 -5264 0
4634 6579 -1590 0
-6675 -6721 4384 0
-1719 1921 -3892 0
5246 5273 9283 0
98 6834 -4604 0
-944 2852 -2647 0
-7005 4378 3412 0
1822 -7673 -9062 0
4651 558 9723 0
-7 8868 1852 0
-935 -5628 3996 0
9846 1196 2554 0
-6362 5830 7660 0
-9110 187 3985 0
4457 -9435 3310 0
8164 8428 1207 0
-3158 -6951 -4001 0
-3319 5124 -3318 0
5483 -4245 6379 0
-9287 7942 8608 0
2515 1709 7949 0
-6393 -2692 5481 0
-1320 -5757 8314 0
8582 -2905 -2460 0
-7973 9805 7182 0
-8272 -4581 -8049 0
-2858 3400 -6870 0
9264 6221 5225 0
1956 4277 987 0
-1068 8931 1380 0
7635 -5680 -4115 0
-4652 6079 5802 0
-6410 -7014 -6741 0
9813 286 1916 0
5049 3055 5183 0
3520 -8995 -2829 0
-108 4632 9030 0
9102 -6386 9877 0
-1533 16 4057 0
4728 -1662 6062 0
-1431 2093 4246 0
8803 -8384 3190 0
-6027 2622 3656 0
4019 -4533 5221 0
9146 2535 -5153 0
-3173 -8887 6138 0
-6772 1101 3627 0
167 -1887 -7079 0
652 -4149 -1289 0
-361 2474 9554 0
-7492 7859 8463 0
2177 9494 8163 0
4845 1992 -6947 0
6976 303 -5644 0
-6905 7795 4629 0
6879 -4370 5160 0
-9858 7489 -688 0
-8192 1079 720 0
593 1561 4121 0
7011 5009 -6749 0
3581 3926 5738 0
5247 -7694 -342 0
75 3668 6788 0
8065 1609 3307 0
-5964 -8247 -2570 0
5038 -279 5914 0
5446 -2807 3740 0
-97 2602 -5144 0
-7660 -4616 -2982 0
5669 5966 2328 0
9494 -1063 3505 0
-5437 9842 -1826 0
-8131 4818 6295 0
5840 8445 -7302 0
-6879 -2505 5450 0
-5352 7996 -8973 0
2448 3327 -4509 0
9931 -4866 2874 0
7930 453 -9177 0
-779 -7906 -9020 0
-3561 8513 9692 0
-4043 -340 -9470 0
1252 -7518 -9306 0
-4348 1391 -4179 0
-6673 5855 -7829 0
8303 -93 724 0
-4493 5711 5334 0
-8283 -1115 9781 0
-3115 4867 -1398 0
-8678 -5721 -9893 0
-2093 5734 -2288 0
9256 5094 -6446 0
-4995 -2139 -4700 0
8736 -6185 4703 0
-6524 5655 -6974 0
-965 -6832 -6246 0
7417 -8410 -7245 0
-9315 -6681 -4720 0
185 611 -2030 0
-9416 -3733 5709 0
-353 6428 -9314 0
-212 7792 1552 0
5762 152 -350 0
8205 2575 8624 0
-2575 7062 1688 0
3353 7057 6380 0
-6499 3943 9081 0
-6612 4800 79 0
8970 -6913 5650 0
-2167 -6858 7942 0
-2739 -1712 -9055 0
-9510 1155 1024 0
5612 3442 -3779 0
4739 2146 -7342 0
1406 -7400 -7253 0
-8412 -7703 -5302 0
-7797 8725 -9540 0
-906 4877 7805 0
-7926 1300 -2149 0
6179 7315 8256 0
-9269 -4233 1075 0
-8691 -8303 -8756 0
5789 2498 6217 0
-9403 1524 -6502 0
-5132 8532 967 0
-5745 -1549 -1698 0
1848 7496 -6322 0
-589 -9114 -9657 0
-4591 -8384 1211 0
-8794 3750 3668 0
2594 -6041 5101 0
-9104 -2237 -5767 0
4564 9802 -9427 0
8278 310 5152 0
3114 -4991 5500 0
8129 7789 3460 0
7655 -5533 -4550 0
6391 4305 3482 0
-2574 1984 3644 0
-2058 5941 -5886 0
2140 1969 5103 0
-7182 755 8232 0
2152 1096 7768 0
5273 -6590 6364 0
-6282 4962 110 0
6808 7268 9791 0
-156 870 -767 0
3730 2092 -5753 0
636 -1603 -5472 0
7890 -5272 -9107 0
3323 5215 -1412 0
-4441 -706 7716 0
1038 1806 -1494 0
-3639 -239 -2302 0
1739 3980 -1523 0
-5473 8759 1479 0
7576 -4722 -1134 0
-4999 7560 7457 0
-2899 -8974 8397 0
-9727 -9452 668 0
-3742 5459 -572 0
7498 -4538 -1524 0
5697 -1446 1033 0
-5618 -9101 -8528 0
-5428 9410 5715 0
-1303 -9851 -5418 0
-7427 -9328 -9327 0
-1023 82 6865 0
8359 -8845 -3019 0
8989 -4200 -3613 0
-769 8264 -6119 0
-9663 3418 9531 0
6806 -5228 6212 0
8894 427 6990 0
7534 -4317 1695 0
7543 -7923 -7078 0
-8167 -48 -7086 0
5131 515 -2404 0
-4212 -9039 5495 0
7072 1709 822 0
-5167 9240 9791 0
6512 -7543 879 0
-5494 -5707 -201 0
5073 3547 -244 0
-3802 8312 -3972 0
-613 6031 7494 0
3000 4347 -1591 0
6582 -3704 3198 0
1094 2181 -869 0
-2166 -7536 -7196 0
8840 -9105 9325 0
7352 -1499 -1540 0
5990 5651 -1636 0
-4205 -3377 9495 0
-5507 -163 -5886 0
2969 4510 8831 0
2986 -6672 -9902 0
1936 178 -1917 0
2916 -7602 1214 0
6188 -8754 8866 0
-6864 3494 2644 0
4796 -6700 -7006 0
5723 -7196 -81 0
-6032 874 -5206 0
-5007 -6967 -2552 0
4995 -4348 5608 0
6980 -6629 2535 0
3602 1327 -5800 0
-143 -4071 2571 0
-8102 9224 1281 0
-8404 -438 -9062 0
8938 -3953 4050 0
-8502 -1057 3506 0
9163 6569 6543 0
8926 7683 2605 0
-9504 5978 -5915 0
4254 -124 -4893 0
-3483 9505 56 0
5154 -6351 1223 0
3804 566 4228 0
-8765 6067 -8871 0
6092 -4538 1245 0
1966 -5820 236 0
-7510 697 9948 0
6306 -6401 -543 0
-9183 -4553 1573 0
-9665 -1500 3153 0
1449 2504 6228 0
-6817 331 -7098 0
2357 5323 -2378 0
1105 -8745 1138 0
2959 -1793 8028 0
6120 5168 -5977 0
-2516 -1975 -1071 0
4209 -1600 9763 0
6529 -5889 6182 0
-7449 -1284 7575 0
5082 3378 2522 0
9511 -7907 4481 0
8709 -8142 2921 0
9785 -3355 7860 0
7916 2104 -1531 0
-9809 6520 688 0
-2668 5726 5295 0
8768 -34 7356 0
9378 -5860 -1782 0
5251 -7373 -184 0
9159 -2352 -33 0
5202 3343 -1042 0
-8494 2487 -9801 0
9655 -190 2070 0
3118 -6547 682 0
-9900 -9397 -8120 0
4847 2466 7195 0
8051 5752 -3880 0
-4683 -4619 -9771 0
-6604 -5651 6689 0
6779 -3925 8165 0
-9551 3785 -974 0
7326 5575 -2738 0
2863 -8718 2022 0
-7075 -9452 8454 0
-2543 1554 -560 0
7906 -158 -3726 0
-8010 6405 3270 0
795 2107 -438 0
-3794 -6197 9293 0
-4387 9623 -839 0
-9148 -500 -8083 0
-9548 3532 -4385 0
-7365 3525 5869 0
5964 7231 9821 0
8015 6162 -8394 0
-3419 248 2332 0
-3271 -177 -771 0
9302 7678 5345 0
-3427 7420 -2778 0
-3237 5530 1530 0
-9811 4141 -1711 0
1425 -3117 -3867 0
-791 1731 -4986 0
5484 -946 -1042 0
-6121 -4898 7051 0
-1523 -9933 -3197 0
3333 1322 5939 0
-7914 7600 -9682 0
2729 -5870 -9279 0
-7386 274 8824 0
3421 5796 -7590 0
239 5853 -2277 0
7456 -5429 4499 0
-4557 4037 6335 0
-4174 3714 2427 0
-487 3195 7806 0
3492 304 8498 0
4375 6683 -3256 0
-2213 5377 -5507 0
8699 -401 8868 0
-9205 -6767 2931 0
2409 -1930 -1240 0
-5602 2202 9703 0
8152 -837 4149 0
7708 8004 -3637 0
8368 -7017 -251 0
-5792 -4129 7503 0
6671 -610 -3390 0
-1580 -9383 -8347 0
-7421 4667 -166 0
6156 -5950 370 0
-5582 1734 2410 0
1310 -9043 -8608 0
3350 -1002 238 0
2049 -5399 9025 0
8249 -1809 4492 0
-9120 -83 8790 0
1816 -4380 5406 0
-35 2331 -229 0
-8129 -924 -3980 0
-647 6645 -6693 0
-5293 1489 3162 0
-4127 -5474 -5963 0
1589 -5179 5743 0
-7663 2880 2105 0
8918 -712 -5302 0
5360 4203 -1760 0
5163 -4684 -9474 0
8534 7373 246 0
-9871 -1918 1084 0
-7080 4285 6595 0
-7783 971 6001 0
5987 -6543 9776 0
-5298 -3926 -9361 0
-2353 7641 6481 0
-2852 4485 8903 0
6266 -5113 -855 0
-8929 -7502 8718 0
-3679 -6996 3090 0
-1465 -2636 6399 0
-1036 6918 5013 0
8213 -5870 -1156 0
9063 6029 -6206 0
5563 5012 -6997 0
7230 -5062 362 0
-8033 9817 -513 0
-2966 7100 -2766 0
-4348 -5917 -355 0
736 -8382 9813 0
3897 -5146 4300 0
1429 -8521 1920 0
832 373 8274 0
-8446 425 3141 0
6684 -6193 -8644 0
-9158 8931 -8506 0
2082 -6136 8620 0
5516 -5148 6843 0
8677 7912 3411 0
5467 -4001 -6305 0
-5700 -2555 4317 0
6503 -9625 -9098 0
9492 -4126 -8166 0
2363 -4207 3244 0
3501 -1497 -3530 0
5254 -46 -2126 0
-9833 4750 -6655 0
-3070 8054 7602 0
-2000 -6305 -4296 0
6533 -7027 -4112 0
-1174 6048 -2499 0
3072 1871 9395 0
111 4269 -2711 0
-1284 -6032 -1453 0
47 -8056 -6209 0
-5781 -1902 -3788 0
5019 -7324 -2261 0
7962 8772 9772 0
2655 -884 3547 0
-8987 9543 9878 0
-9214 807 5029 0
8916 -2638 -8121 0
436 3063 858 0
-9491 -3150 9668 0
-7895 8917 9488 0
4938 -4955 -4931 0
-7437 -8226 -4212 0
1762 3622 -8261 0
1064 -2651 570 0
-1288 -5175 -7691 0
-3011 -6921 -4159 0
-6776 7624 -2744 0
6264 -4178 3660 0
5769 -6680 -4648 0
-1082 -4777 2302 0
-3910 -1002 7767 0
-8377 7398 5998 0
-667 -3539 -6367 0
4017 8154 -1512 0
-2139 4981 6633 0
-4667 406 -5757 0
5200 768 -259 0
9582 -5695 9219 0
5331 1287 -6429 0
-793 -8679 -1608 0
-2788 -7394 1936 0
7722 -1010 -1053 0
-6914 6990 -1261 0
5440 -3495 8299 0
-5589 8524 -2123 0
7643 -5566 8848 0
-9217 5235 -5490 0
-2480 7084 -6679 0
-2195 -8862 4373 0
1086 9074 4893 0
3906 -1874 6006 0
649 -3337 2424 0
-6540 -1876 -6792 0
9479 -9876 -3211 0
-9766 36 9325 0
1993 -5493 -9488 0
-4101 1328 503 0
-7984 2230 -5460 0
-4034 -2900 -9085 0
8519 -1481 -2038 0
6889 -5923 -342 0
6495 -6225 -2832 0
-6588 9582 -3747 0
2560 6058 5202 0
-9899 -8191 -1064 0
-6566 -2138 7420 0
9471 3994 -1594 0
6691 -7030 7713 0
7061 -8989 -1052 0
-8256 -2178 5184 0
-4740 -7693 5522 0
5455 -9642 1600 0
9308 -78 -2640 0
9288 1995 -4351 0
-4431 4165 -558 0
-6108 9569 -6589 0
4213 595 -7863 0
-7276 -7206 -5296 0
4551 5230 5439 0
9228 -2443 4254 0
-8892 -7371 -1991 0
6356 -3054 -3408 0
1524 547 1447 0
-5381 -5075 -9213 0
-8705 -164 -3877 0
-1079 8878 7762 0
2217 -7581 7653 0
-3823 6139 -7024 0
-8434 7860 9822 0
-7316 1504 -5378 0
-1075 2535 -131 0
-8559 -9685 -3816 0
-7001 -6081 4003 0
-6457 -4870 9580 0
-4602 3659 8335 0
8749 9252 3826 0
5915 6310 -9091 0
-2636 -1795 -5521 0
8055 7391 4770 0
1329 6870 8881 0
-2539 8371 -1165 0
3061 -8738 -5898 0
-2238 559 9374 0
9439 -5026 4504 0
1334 8707 5870 0
3083 -9437 -5092 0
275 -299 -4259 0
8698 -9337 -3910 0
2422 -8384 4400 0
5842 -7316 -1769 0
-6928 3875 4048 0
8 -8142 -1280 0
4266 -461 8341 0
9611 -3356 -9792 0
-8722 -3937 -8002 0
-1832 7539 -9345 0
9538 1687 -1174 0
5722 -9704 5601 0
-3905 8316 7606 0
-4682 -2033 1862 0
1042 -2005 -7857 0
-6786 -1849 -791 0
961 8963 -8763 0
-3073 -6587 844 0
8351 -7580 -2142 0
7341 721 9598 0
-1171 -9216 -550 0
1898 -1714 -7740 0
-9161 8027 8301 0
-9080 2542 6911 0
2520 -527 -769 0
-1917 -8433 208 0
-3016 -8886 7282 0
-714 -8255 9606 0
1965 5137 3124 0
-5185 -2975 1031 0
-7443 -1145 5976 0
1752 -6002 -2474 0
52 9732 7910 0
-3150 1215 2078 0
1094 -5491 3002 0
7776 3032 -7999 0
7961 4039 -2193 0
3510 9752 -2275 0
-952 -6519 9204 0
7240 -4698 6839 0
-9164 8974 -573 0
-8276 -6745 4304 0
8452 8997 -4033 0
1641 -6040 -183 0
-7784 7961 834 0
-4213 -7148 421 0
7859 7470 -7074 0
-9152 7616 117 0
4074 5368 -5873 0
7130 2086 -9595 0
5769 -848 -9357 0
-994 5985 -8700 0
7483 5070 -6674 0
-654 -8212 3647 0
-9008 2431 -1235 0
4772 7601 -5249 0
9565 3691 -3683 0
8232 -9667 -6252 0
-3353 -1385 9903 0
-515 -2794 -6897 0
-9543 -1184 -6839 0
6394 -6124 -8777 0
-2745 3883 -8035 0
-1112 3201 1018 0
260 9467 7386 0
-3782 6727 -1612 0
-8240 -8185 -9084 0
-8337 -5997 -5136 0
9813 -8613 6437 0
-2602 4781 -4148 0
-5920 5916 -7326 0
3024 -783 -3561 0
-5208 324 -6360 0
-840 -7961 9462 0
7550 4217 6786 0
-7797 2122 -8512 0
-6111 -7554 3172 0
-9769 -506 4898 0
-2764 3400 -7726 0
2647 6807 4259 0
9690 927 2145 0
-2072 -539 -3836 0
5839 -9825 115 0
9450 -2796 375 0
-5405 9054 -3941 0
9171 7968 -7351 0
-4431 5332 -8696 0
-6894 5594 1149 0
-3374 4764 8104 0
-8363 -4567 -8100 0
4118 6458 -7750 0
-6114 261 -7432 0
1377 7037 8996 0
-4790 838 -1963 0
8842 -7249 -2910 0
-4206 -7520 8132 0
659 9937 -1852 0
5726 1669 4880 0
-3473 7285 4732 0
-8213 -5521 -1973 0
6724 -6476 7414 0
-9290 -8616 3195 0
-9724 7875 6465 0
-9828 3120 -8163 0
-6655 2256 2725 0
4068 4928 6058 0
-7985 3256 4635 0
-7261 -6158 -3089 0
4351 -6853 3710 0
6514 3965 -4499 0
3934 287 -3095 0
-9289 -9868 -1150 0
-8183 1796 -3685 0
51 387 5049 0
-4604 9639 -7338 0
3215 5369 -2130 0
6574 -8223 3507 0
-3693 -3854 8118 0
1064 -1062 -8900 0
-2349 -9783 -9336 0
7408 -1735 -7164 0
-2303 -9582 437 0
-6408 -8760 -4474 0
-8354 6440 -4042 0
3169 2309 -2129 0
-1182 3239 -9605 0
5651 -2552 -8203 0
3134 -5597 -8147 0
-9285 1353 -469 0
-5303 5478 -9578 0
4197 5994 -5374 0
7897 2972 8564 0
6893 -2913 -9531 0
6401 -3318 6209 0
-1320 -2795 -1543 0
5366 -1004 -1595 0
1238 7343 1216 0
4814 -6212 -9640 0
5803 -1090 9763 0
-3717 5755 2349 0
-5652 -2401 -4689 0
-7566 3956 -3698 0
1383 5761 -2052 0
-9674 -9818 404 0
5569 -4454 -8250 0
-4522 9599 7680 0
2301 1701 8718 0
-8823 -8455 630 0
6498 4765 -8897 0
-1227 9972 148 0
3147 -9084 2337 0
8131 -519 -2453 0
-7920 7473 7379 0
-303 -9180 -1123 0
3078 1867 -9507 0
5020 -9350 7386 0
-4670 -8292 -4769 0
-9658 -1421 -2002 0
5937 6161 -3252 0
8652 3882 -7121 0
3430 -935 -7321 0
-8422 1894 8767 0
-224 134 -4221 0
-9534 4269 4659 0
3099 4210 -8648 0
-4535 -4750 4837 0
6680 1382 8409 0
-9438 1047 6526 0
-9088 3162 -9678 0
-2171 -1979 -9226 0
-4162 -1013 -8483 0
-5640 -7737 -8212 0
-1666 6344 -1594 0
-9389 135 -7858 0
7226 -5454 2631 0
-1282 2230 -9289 0
-9904 -3927 -3572 0
-6172 -742 7791 0
-9951 6528 7667 0
-5742 -2230 -7249 0
9044 3791 2336 0
-5795 -1293 -3351 0
7739 -2668 2517 0
-3225 -740 6850 0
-108 -5316 8869 0
-4365 -6709 -723 0
1127 7667 -7143 0
-7787 -1557 -5619 0
5377 -4894 -1415 0
-4843 1786 9117 0
5448 -4256 6410 0
-4073 -144 -6118 0
-3948 -8818 8399 0
7160 6817 -4927 0
4023 226 6116 0
4801 7882 5097 0
2190 -737 3910 0
2463 206 1327 0
3055 -6639 -9974 0
8731 492 7786 0
-7334 -5539 2030 0
-920 -9462 -6275 0
3597 -6877 -7080 0
179 -8189 -3598 0
4380 3319 -8998 0
4475 -8431 35 0
3744 -7238 -7386 0
5287 -9627 6570 0
8404 -7865 -5394 0
2355 -2759 -1348 0
3835 9227 -8793 0
988 622 7913 0
-6027 -6127 -2931 0
1418 -2015 2407 0
-5637 -4894 -4172 0
-2818 -1982 -6862 0
5769 -6721 3481 0
-6675 -7577 -1798 0
-2508 399 -1744 0
3104 1018 7839 0
-2367 8826 -8471 0
-6624 2437 9911 0
-6359 6880 9180 0
1752 -4204 2532 0
6176 6532 9650 0
-8056 9842 4295 0
-3774 16 3600 0
7724 -683 -263 0
-9653 -4471 1854 0
3109 -1592 2462 0
-5649 8263 -9600 0
-5287 8549 9811 0
6367 -2160 -2962 0
-7881 7870 -8665 0
-798 -9702 -8646 0
6286 -810 384 0
6230 7942 -2651 0
-9333 6043 -6809 0
-4477 8625 -3418 0
-7052 -7543 1919 0
961 -9456 9172 0
-255 -8447 -2724 0
5194 -9618 5219 0
8588 -7965 8544 0
-6608 -6161 -2396 0
2123 -7414 -5299 0
-5502 -7962 7409 0
-8395 -3764 -4462 0
-9862 -1775 -1411 0
-6459 -3427 372 0
5919 4906 8504 0
6265 2882 3256 0
-7130 9758 -3529 0
9979 9955 8968 0
5882 -8019 7217 0
81 3166 8294 0
-5412 9791 7193 0
5456 -9056 1094 0
7970 8194 -1464 0
8218 6700 7819 0
-876 9906 4032 0
8304 6777 7828 0
-1061 623 -9829 0
-1993 8077 7049 0
-9392 5283 3568 0
839 1309 -1181 0
-1275 -2279 8551 0
188 -4710 8120 0
-6703 7392 1972 0
-9496 -7891 5972 0
6468 -2865 6397 0
-7599 -766 6392 0
7710 7850 8041 0
6737 5691 5719 0
9814 2397 4597 0
-1924 9475 8795 0
-3993 4561 -2713 0
3891 -6308 6469 0
5009 -5122 1527 0
-8616 -2381 -3609 0
5560 -1847 3639 0
36 2292 8503 0
-2509 -1004 4531 0
634 7095 -7303 0
567 -2097 1775 0
9707 -2502 -4868 0
-8792 -9682 584 0
-1421 -4658 -3876 0
5394 4462 3933 0
831 -2734 -9177 0
-3751 924 -6608 0
-1965 -9656 6463 0
-3123 7062 -2048 0
-9954 -7593 -7851 0
6392 811 1007 0
4586 -1423 1346 0
-233 -1719 5813 0
6264 5028 7131 0
1734 -1676 -7471 0
-4662 -1318 -4211 0
-317 9390 3074 0
-2683 1199 8346 0
-1425 3603 -1916 0
-522 -7651 -4614 0
-432 -5659 -9538 0
-9645 -6336 2610 0
-2242 6636 311 0
2264 -311 -3617 0
-5702 8388 2850 0
-2271 8102 -8156 0
4496 8341 2464 0
4758 -327 -182 0
-7756 -3246 4396 0
3767 -4371 32 0
6193 7566 -3583 0
3882 7204 7940 0
2017 -3673 8098 0
9254 -7513 4641 0
7212 -4748 -2371 0
-9641 -3850 -9766 0
-4507 -4344 -4111 0
-5262 6767 -9435 0
-3482 4242 -4603 0
4602 -4039 9040 0
3760 7777 389 0
2248 578 -1369 0
-9921 66 4349 0
-1397 -8447 -4365 0
-6072 -8163 2874 0
-1777 -7230 -2469 0
3946 5958 -3228 0
-4255 7875 -2153 0
597 2064 5348 0
-7320 2583 5314 0
-1078 -3702 -4417 0
-9953 -8463 -2716 0
-7661 2607 5840 0
6623 9935 5611 0
-6616 8471 6439 0
-2195 -431 897 0
-8765 -5290 4063 0
-2746 4967 7457 0
-3940 8081 1662 0
-7469 5111 -2666 0
-5860 5605 992 0
-1914 7894 9942 0
-1947 -484 -5024 0
-9125 2501 -7396 0
-5012 -8173 -9352 0
-79 -7875 -3152 0
2873 4217 4289 0
-3245 6523 -8069 0
-4211 -8859 -4992 0
3221 -3476 -483 0
429 -7852 6322 0
-8981 7069 5294 0
7112 -9264 5463 0
4359 -6890 -9685 0
6603 -8694 -6685 0
-8343 7433 5614 0
1299 9096 2251 0
-5915 7934 3732 0
-1663 9474 2032 0
-3337 5955 1483 0
-6562 4217 -8080 0
4167 -9461 -2213 0
8122 6673 8713 0
-6428 -7722 4677 0
1797 9782 8414 0
-5435 -8441 -2149 0
-1166 -9172 -2253 0
8239 -9458 -6469 0
-6147 2238 3392 0
-1879 2250 -9288 0
-2826 -8977 2288 0
-7038 -7950 5563 0
5373 2135 3733 0
-2322 1593 -3442 0
1940 -668 9696 0
-7370 -5555 -842 0
2101 9684 5384 0
8665 2337 9172 0
8850 5437 -394 0
-697 -86 2512 0
-198 -2789 -2584 0
6091 -8473 1318 0
6997 -6541 -5487 0
7085 -6945 -8843 0
-1528 1101 5605 0
-9683 -4783 -8298 0
7436 9358 -8395 0
3990 557 -3781 0
9603 4128 5313 0
-8867 4976 986 0
-1661 2581 7037 0
3642 8711 1383 0
4465 4143 8697 0
7123 -7073 167 0
-9096 7418 -4824 0
6606 8414 3137 0
6881 9603 -8491 0
153 -4942 -2142 0
4816 -6761 6706 0
-1555 3420 -8672 0
-5842 -671 -8714 0
5612 -4095 9682 0
969 1699 8287 0
9051 5701 -1265 0
4367 5224 154 0
6103 1387 -6510 0
1507 1387 -751 0
-2388 2833 1769 0
-4539 -8956 -8032 0
-6575 6976 6477 0
-8765 5039 -4911 0
3074 -9975 -9716 0
8809 3220 -1025 0
-9234 2697 6291 0
-4853 -2430 -7688 0
-9591 6629 8431 0
2338 213 7453 0
-6332 -7880 7482 0
-4970 -770 6635 0
7195 2031 -7058 0
-4379 -1834 -9438 0
3823 2602 4681 0
8644 1950 -5970 0
-3236 -2185 -268 0
5967 1977 8071 0
8270 -4628 7013 0
7102 -6019 -4532 0
4526 8243 -4001 0
-7588 -830 -9857 0
-2332 -132 2290 0
2954 4096 2144 0
-6029 8545 157 0
2251 -4554 -7416 0
-1129 9217 3471 0
6108 8352 -2495 0
3020 -4642 2585 0
-9607 -2083 -8945 0
4709 7384 9157 0
-3020 -474 6560 0
8638 -9681 -1192 0
-2306 -8078 5987 0
4269 3062 -3820 0
886 8966 3240 0
9433 7363 -9560 0
1626 4301 -1327 0
-5650 -3177 3430 0
9465 -9006 -3732 0
5524 -5527 8989 0
7619 5875 -4244 0
-590 2533 -4168 0
5715 8102 3875 0
-5654 -2752 -7927 0
252 -8941 3645 0
-6554 9214 -5351 0
3996 2555 1329 0
-3712 8565 -7205 0
-6532 -6058 4494 0
-9317 3806 1913 0
3267 428 2185 0
2573 -4300 6926 0
-7786 8135 -610 0
-8366 1978 -2325 0
4191 -1636 5975 0
4433 -2477 2754 0
7366 1084 1454 0
-537 -4891 2368 0
-8271 9491 2872 0
3575 5338 2986 0
7350 -8850 -3947 0
-8578 9855 7523 0
-6157 -4048 7328 0
8023 -4122 202 0
1454 -5058 -4516 0
-9866 -9683 4789 0
5761 8366 -3642 0
409 -971 -8752 0
2379 -3607 8129 0
-6782 452 -4775 0
7353 625 7684 0
1791 -4929 2111 0
5866 -1553 -7354 0
5074 9491 5691 0
-3607 -6372 -5332 0
-6201 -5802 -6225 0
-49 6032 -3775 0
-1103 -4713 -2468 0
-9735 -7630 -8695 0
540 7415 1024 0
-1854 -2371 -3589 0
-8756 6823 -540 0
8662 -5241 4167 0
9107 -8849 -5250 0
-6563 -2853 9064 0
7199 -4019 -1029 0
-9834 6166 6751 0
-7766 -2218 -6091 0
6258 -2007 -5744 0
-7824 -1448 9723 0
3639 6185 -7985 0
1777 1799 -2376 0
-9180 5384 4723 0
5080 4436 -237 0
5464 919 5148 0
8017 2266 -7550 0
851 -7912 -8334 0
5308 -3713 -3682 0
-4769 -3052 -2531 0
5593 -6800 6399 0
-2345 -9247 5698 0
-5989 -3204 5081 0
8894 -6527 -2829 0
-1613 8494 -5872 0
-6825 3820 4799 0
-3087 -4761 -4708 0
2465 -1207 9976 0
-2089 -3414 5929 0
-925 5750 8783 0
7615 594 -3692 0
-2425 9537 8429 0
-3386 -8388 -6397 0
-6470 8481 2474 0
-4037 7463 -9481 0
4304 73 8155 0
-9616 -5719 2782 0
7417 -1025 -1853 0
7018 -1046 4634 0
-6707 7134 -7730 0
3893 9208 474 0
-9603 -3657 -5845 0
7599 9367 3669 0
5601 -8583 -9138 0
-7253 -3668 -7504 0
6900 -6898 -7884 0
8615 -5480 -3359 0
-1363 7914 -9322 0
-5513 8492 -6426 0
8368 -3272 7856 0
-2565 -5264 2842 0
-2037 4886 5495 0
3499 8274 -6577 0
613 -3473 175 0
8813 2950 3836 0
1750 -8052 1621 0
-6095 9266 -5630 0
6456 -5569 9440 0
8516 7622 -3213 0
8937 8131 6396 0
891 1514 -765 0
-59 -6000 -679 0
4339 -5619 -2831 0
9774 5288 -7634 0
-7332 6390 7539 0
3762 7864 -1942 0
-8651 8436 654 0
-5344 -7499 -718 0
-6486 -9913 -8685 0
-7940 -6414 9945 0
-5493 4406 5653 0
-1795 768 9270 0
-273 -8694 -8433 0
-3082 -9358 1930 0
-7814 -6531 1765 0
8779 6718 2513 0
-6646 -8138 -199 0
1038 -8073 -5935 0
6701 -3125 -1665 0
-216 9386 7404 0
-2557 -9767 -5484 0
-8060 -6743 -8871 0
1081 474 946 0
-9135 2152 -3404 0
-1817 -8122 -3412 0
-8149 5534 5832 0
-3272 -166 794 0
-6850 1039 5364 0
4009 -4681 6369 0
7549 -2859 -2115 0
1670 -967 -3239 0
-5252 -986 8412 0
7511 9039 -8818 0
4846 -868 -3639 0
2129 8609 -5447 0
4713 -2214 -591 0
8334 -8805 -8448 0
6469 -9938 -3613 0
2035 7709 5678 0
7009 -9342 248 0
5793 -3798 -7550 0
7349 -3524 -754 0
3551 1258 -3572 0
268 4688 -4755 0
-3476 1019 -5943 0
-5817 -4087 -2714 0
8001 4255 7228 0
1534 -5598 -5676 0
-1924 8371 -4900 0
-4801 6423 1251 0
-3304 -5748 -24 0
1562 2563 6601 0
1164 2845 -1891 0
946 -8782 3567 0
-7337 6471 -3257 0
-5541 794 -3189 0
-3678 -2178 862 0
8617 -4212 945 0
-5176 3517 8578 0
-1179 477 -3213 0
1919 -9640 -3890 0
-5310 -5849 516 0
3705 6682 -2500 0
7844 -8965 80 0
5168 -5862 9010 0
5019 -9428 -2767 0
2533 -8530 -7756 0
7956 -2857 1509 0
-3841 -5137 -7920 0
-3430 7022 3390 0
6476 3962 9161 0
8766 3183 2601 0
-6196 5699 971 0
7236 129 -1604 0
-8210 -812 -1796 0
3956 1164 -8561 0
5778 -3853 9088 0
2408 -5262 6376 0
-1313 4892 -610 0
7284 7634 4536 0
-9466 -336 -2850 0
-6095 1668 1944 0
-1932 -2399 7360 0
-2386 -7308 7557 0
-2647 2919 838 0
-7503 7603 -5962 0
3194 638 2101 0
-4065 -8841 2606 0
9751 -8478 9146 0
-9002 7249 3234 0
-2165 6007 -6486 0
-1627 -1731 -2693 0
6568 6176 -6666 0
-1304 3890 897 0
-1465 -4318 -2457 0
-3285 6496 -4284 0
7494 7661 -8378 0
-2269 8317 7192 0
-2787 -2142 2820 0
-376 6886 488 0
-1088 8572 6983 0
2100 1818 2870 0
5433 10 4138 0
-7779 252 4978 0
9052 3273 -2369 0
3920 -8564 -739 0
-2904 2514 8826 0
-3243 -4184 6565 0
-9191 -1062 5999 0
6740 -717 -9441 0
7069 788 6370 0
-2362 830 90 0
-2708 278 -1770 0
-9569 1281 7417 0
-4750 -9902 -3476 0
4402 5535 3515 0
1956 -756 3940 0
5735 5543 9647 0
4002 -6615 9201 0
6883 7590 -9382 0
-7095 4203 -8935 0
154 5493 -928 0
-9325 54 425 0
1501 8541 -6666 0
1635 -5192 6890 0
7296 4039 5697 0
-450 -6784 -4586 0
4448 2255 2778 0
-9356 2584 7790 0
-5422 9911 4277 0
5940 -5120 9029 0
-4114 -2766 6243 0
4506 3088 6073 0
-9797 -9623 -2051 0
-4988 -2990 9264 0
6116 4939 127 0
748 4635 -4340 0
6282 -5588 -104 0
7287 -900 -965 0
1805 2333 -5357 0
4504 -3679 7799 0
3757 -3905 4457 0
4548 5744 7325 0
-1409 9221 -9176 0
8322 8065 -6671 0
-4803 9472 8658 0
-4284 6281 -7931 0
2594 -278 1887 0
5583 3459 2051 0
-533 -2284 1312 0
-6790 903 7791 0
8962 -5253 2280 0
-3890 -7870 3275 0
-1908 -8851 -203 0
3547 8001 6831 0
-7475 3613 -6763 0
480 3069 5416 0
-9283 -3370 8412 0
1484 -2070 -865 0
1552 1169 -263 0
9656 2373 -4656 0
-2741 -5448 347 0
-5093 -5119 -2614 0
8750 -8806 5773 0
-7916 5031 -9003 0
6701 2489 -1219 0
-7271 -9152 -5191 0
9400 7506 -5779 0
-5352 1239 -2955 0
4258 3432 -3966 0
-2568 -5817 -3845 0
1924 8041 -196 0
-7353 2805 -3882 0
-9138 -639 -1694 0
-2676 5744 2401 0
-8165 -3947 6356 0
9287 -3109 3381 0
1517 4238 9754 0
4762 -7588 6447 0
5330 7308 8255 0
7130 -8025 3663 0
4616 -1438 7983 0
8789 6963 -5779 0
-1931 1349 8382 0
-133 2533 1404 0
-6797 9201 -8192 0
561 -9289 -3444 0
-6814 4002 -7351 0
9989 3216 2552 0
-4902 5454 3670 0
-263 2566 6560 0
8458 4135 8682 0
9595 -859 -6648 0
6897 2504 -7308 0
-4661 910 5581 0
-4028 -5598 -6663 0
8317 -4784 -2896 0
-3560 -6001 783 0
8512 2195 9291 0
5258 8311 788 0
-9900 -6050 -6852 0
6186 4182 1757 0
1012 9570 9744 0
9472 1097 -4582 0
-3468 -5312 757 0
2282 -4547 3864 0
-8128 1639 -8838 0
8075 1965 1067 0
3703 -2990 -5174 0
-4957 1193 8166 0
-6724 4745 5343 0
-8739 -6914 -5770 0
7072 -7319 669 0
-5963 -9808 1729 0
-7082 -511 -6514 0
-3451 -1876 1217 0
-8524 -3435 -9768 0
6936 1677 3576 0
-9541 -5228 8690 0
-4194 -1357 387 0
-701 -3714 -7085 0
-1991 3450 -3151 0
-1541 6079 3815 0
-4805 -8612 9019 0
8507 5286 -5474 0
-6346 8818 -1886 0
9244 9829 4749 0
3746 8805 -7304 0
2278 2781 5564 0
3437 1029 9334 0
-1312 -1025 7579 0
3295 -6755 6083 0
8973 1227 5915 0
6603 8968 -3329 0
3714 5261 -8634 0
470 9551 1026 0
9630 1811 -9629 0
-9054 -2472 -2039 0
6693 -3793 -5258 0
-9484 4837 1803 0
-9289 -8327 -2182 0
5306 -7118 7022 0
2836 -691 -1011 0
-2071 -9456 3698 0
9204 -3023 -3487 0
-5358 -589 -2104 0
-6587 -9767 2536 0
8826 4810 -6623 0
-3533 -7185 -5424 0
-2752 821 -5322 0
-984 -6882 -7300 0
-7933 -9476 -5433 0
-2599 32 -9976 0
1423 8737 -3844 0
-873 -3663 7571 0
-8381 6087 -7763 0
-7455 3975 4409 0
-7830 3995 -5702 0
4350 9050 -1847 0
-4808 9669 6268 0
42 2417 -7871 0
-290 -2358 -4887 0
2718 4187 -7878 0
-3972 -667 8123 0
3765 -5300 -861 0
-6897 3161 2542 0
-9852 -3360 6039 0
6941 -5899 -4908 0
5474 -3964 5383 0
4675 -1884 3543 0
6574 9920 -5537 0
5966 9086 1228 0
382 -217 -9761 0
2253 4135 -2202 0
6107 4512 -6161 0
3358 -7557 5965 0
-151 -2202 -9208 0
3904 -4806 541 0
1376 -326 4341 0
7297 1269 4235 0
-7711 7983 -5365 0
9200 -3421 2906 0
-9725 3258 2386 0
-5521 1683 1771 0
-1894 9989 -2159 0
7340 5429 -5665 0
-2425 1186 -2429 0
4563 -3986 -909 0
-8179 -8591 1945 0
-521 -1614 -3449 0
-3771 1439 2776 0
1136 3692 23 0
2678 7887 -6202 0
6774 1562 7051 0
-9893 -558 2428 0
-5836 -1411 -4274 0
-716 769 -5887 0
4968 7640 -5094 0
15 9144 5902 0
-1996 601 -9273 0
-7467 7690 -7848 0
-803 -8636 -8104 0
-4802 7455 -3684 0
-7733 -5604 -2914 0
-708 9991 -3586 0
-8767 -391 4558 0
464 -5603 5232 0
-4771 -6260 6599 0
-992 -118 -1681 0
3595 -9187 -8540 0
-1837 -5263 4071 0
6869 2782 -8568 0
267 -888 2785 0
4297 9450 6339 0
-5326 2769 7529 0
1235 -6427 -35 0
4215 -8809 -8205 0
5642 7570 7536 0
-9129 -2769 -7943 0
-2490 -7714 4883 0
-4047 -2583 -7009 0
-7971 3368 2946 0
-953 1411 -9954 0
-4035 853 -6125 0
9316 6657 -5595 0
-418 2638 6430 0
-277 5740 -4639 0
1720 8588 3077 0
8458 -7621 -3466 0
3678 -7255 7393 0
8945 7906 -9437 0
-1629 5543 -797 0
9470 2506 4887 0
5057 2658 -9273 0
2672 4436 6987 0
9985 5802 -8443 0
5612 -5732 8143 0
6145 -4305 -5739 0
6648 -9931 1470 0
-3645 4187 6439 0
5505 -1197 7825 0
-3734 -3960 -3930 0
-2032 8892 -1105 0
-2587 5606 -3778 0
-4159 2399 589 0
6017 2055 -3138 0
-5493 3875 1128 0
-2102 5853 -8198 0
6713 9872 -9062 0
8910 -9470 4416 0
4460 9949 -5160 0
-2276 -6547 451 0
5735 2181 9077 0
-7236 6317 9387 0
-1170 923 -9738 0
5028 -7210 -970 0
-6835 1554 3411 0
-1936 8891 -687 0
-6299 -5897 474 0
-2136 5155 -9165 0
-4890 -7224 -4073 0
-5524 -6945 9826 0
9451 -8309 8114 0
-5449 -3637 -2999 0
-3351 4310 3041 0
-6376 9692 4144 0
1883 -5273 7779 0
-3549 7440 2284 0
7174 -3589 -7747 0
-1593 -8586 -1642 0
3843 -7652 5262 0
1154 3061 -5989 0
-8816 -7399 6489 0
452 3130 5844 0
-3674 -386 -5113 0
5966 3201 -8418 0
7068 8845 8081 0
7087 -457 -4136 0
-1493 1733 -8819 0
462 -6588 -1715 0
-4222 53 -7943 0
4719 -230 -8006 0
8276 3823 -4443 0
-164 -9409 -8199 0
1347 2780 -165 0
264 -9917 -1504 0
6989 -1055 1563 0
8010 -7035 -2708 0
5055 1835 -7460 0
-1963 -8510 5287 0
-9619 7029 -8786 0
9369 -2395 -9187 0
-9407 5413 2700 0
3456 -9580 -5534 0
-5047 -5595 4903 0
-4117 -1435 9745 0
3596 -48 2268 0
-7981 8125 -2735 0
-2910 -344 -8423 0
4430 -4837 3861 0
-9163 9432 -2222 0
-6665 8019 6010 0
-5592 6847 6051 0
7384 -3919 6846 0
-5224 -2475 9973 0
-4812 20 -1653 0
6360 -9444 -8552 0
-2599 2808 -663 0
-1037 9328 -9123 0
-9342 -4787 2727 0
7275 -8402 9771 0
-3176 -4128 3952 0
9643 -973 -2948 0
-1803 4297 2630 0
-9417 782 6926 0
-6055 2746 -83 0
-2842 -506 2000 0
4341 -9219 -4271 0
-204 -726 -93 0
-3730 5704 -6318 0
4344 -8017 -3641 0
-7623 -7168 7986 0
-3000 5671 -3428 0
7763 9796 -5792 0
-1702 -5887 9570 0
-2998 918 -3311 0
-6639 1589 5923 0
-9335 -9675 9699 0
-7437 -2729 -5006 0
7932 4469 1285 0
4361 6786 -8348 0
-2104 -9587 -1261 0
4330 -5263 7128 0
498 7799 4919 0
7166 -6657 9771 0
-5115 2569 9277 0
4811 5841 4404 0
-7291 7481 3506 0
4513 -3191 -1393 0
-8776 -1610 3096 0
1286 9227 5595 0
-4120 5806 -171 0
7599 9956 -5148 0
1806 -4854 7692 0
-1823 9115 -2956 0
-3252 4692 3061 0
-1996 5554 -6904 0
2377 4620 5755 0
-276 5438 8263 0
-9567 -1709 -5521 0
7525 8127 -5122 0
-6920 -2808 -3176 0
4475 -3633 -8389 0
-5961 7816 -2009 0
-8168 4421 7395 0
-7749 -8666 -3868 0
-4948 -1048 601 0
-9669 8355 -1376 0
352 4220 4316 0
339 -1241 7644 0
1665 13 -8816 0
-8813 -8833 27 0
-7061 -2384 5472 0
-1792 -3920 3919 0
-3645 3155 4670 0
401 6114 -2844 0
6522 -4682 -1921 0
6762 -3737 -1446 0
7727 -3217 8785 0
-8460 3657 -3286 0
-6565 8054 7822 0
-9919 4430 9555 0
-6748 596 -6571 0
-9109 1573 -6242 0
6822 -3589 3159 0
9527 4641 8722 0
-779 969 2189 0
-5295 7689 5480 0
3222 1865 -557 0
-8509 -8941 9729 0
9531 5304 -3745 0
1473 8875 3274 0
-2652 1613 -2137 0
-5813 2820 6422 0
-8144 8293 -8316 0
5599 -2102 398 0
-8490 -8310 3191 0
4037 -238 -6878 0
7118 6987 6594 0
-5545 -6801 -8016 0
-387 -2609 -9918 0
1126 2160 -6348 0
-8160 -4146 -4982 0
5369 -5257 6679 0
6826 -5422 2082 0
-6422 2261 -6060 0
-1292 -2675 -2401 0
8354 -5352 7439 0
2374 -5850 6377 0
3539 9170 -4977 0
-9343 -6154 9487 0
4515 2495 -6943 0
-8709 738 1419 0
4625 -6224 8296 0
-9753 -464 -1536 0
182 2495 -636 0
4510 -4638 -1684 0
1250 -1850 639 0
7738 4281 6792 0
2690 -5538 -9706 0
6972 -3062 -6738 0
3940 -4003 -344 0
-5460 -6970 -6726 0
-1217 -4791 -7006 0
-2807 8689 2732 0
-7769 4249 -3241 0
321 2691 -7178 0
4028 -6730 -9191 0
3101 4179 9582 0
1629 -6504 -1894 0
69 -3885 925 0
5115 3397 7544 0
3499 7920 -9589 0
-1893 1855 7107 0
301 -2201 -6555 0
-3191 -4320 7822 0
-4285 -2783 6482 0
-8441 -7290 -4487 0
-7893 -7529 -6453 0
2869 2302 -4890 0
-4541 -646 -7811 0
1291 -1822 1508 0
-7127 4176 -149 0
8995 4164 1990 0
-672 1152 8713 0
1094 614 3435 0
617 -3704 -5047 0
-7666 -1312 6050 0
606 3293 -8217 0
-6394 -1749 -1548 0
9120 -9971 -4212 0
-3977 5754 -4030 0
-5893 -1846 -8724 0
2244 1389 -9037 0
-8627 -5259 -1304 0
-9603 5100 7361 0
1507 -4647 2795 0
-6718 -5838 7847 0
8473 3184 -2289 0
-3574 -7622 7231 0
-7817 -9093 -1032 0
1945 454 -7211 0
-3308 465 5314 0
9736 -7770 3922 0
633 -3663 9367 0
7705 -4117 -987 0
8206 5736 -3791 0
556 6987 -4518 0
8037 4826 8377 0
-4608 3148 -6741 0
-849 -2629 1976 0
-4469 -8151 -274 0
1108 4919 -6539 0
1682 9290 7516 0
8496 -355 1713 0
-9465 6790 4988 0
6703 -3989 -3050 0
-7417 8471 978 0
2658 6527 2794 0
849 -9575 6482 0
-7367 879 -9413 0
-7876 4640 7245 0
4419 -7943 9886 0
-9416 -3380 -816 0
-2201 -4311 -7120 0
6044 -8042 9650 0
3564 1095 4498 0
-5163 -4678 7677 0
4731 1052 -2130 0
-6883 -8616 4576 0
-400 7024 4664 0
-2231 -596 4799 0
9213 9979 6583 0
-5861 -8266 2974 0
-6249 -4607 9788 0
1020 3190 -5933 0
-6194 -9380 -468 0
9821 6319 751 0
9880 4787 8165 0
7297 4498 9983 0
-9430 4183 9169 0
9088 -9706 -9319 0
9649 7420 -1632 0
-5570 -6361 9591 0
9641 -8035 -9835 0
857 5367 8468 0
-3854 -8667 -2660 0
7612 -2802 6460 0
5387 -6676 3697 0
-9070 -3632 923 0
8418 -4909 -5308 0
8667 2228 -7542 0
5259 -5806 -9555 0
8243 -9461 -9155 0
332 2292 3199 0
1115 1476 -8378 0
-2312 6080 -8953 0
-4244 1639 -4991 0
2852 7768 -6981 0
-3926 -7177 5935 0
-3363 9987 -8370 0
-4245 -9542 9192 0
7386 8468 4410 0
8901 -1344 7364 0
1444 -2485 -141 0
7193 6296 8432 0
-3479 7938 3324 0
9524 9614 -1533 0
6571 3309 -1071 0
3275 -1022 -9234 0
9237 -3503 -9422 0
-7805 1033 6616 0
-3202 -6160 6754 0
-3742 -1656 -4601 0
456 -6463 -2489 0
-4545 -1866 -6901 0
-7236 4782 -9554 0
-6550 -7350 7183 0
3512 2880 -149 0
8792 -9838 -9743 0
-5611 4230 -8154 0
-6396 6231 2842 0
-1210 9698 418 0
3710 -8375 1008 0
-5389 7698 8262 0
4598 -1759 8713 0
-7695 8096 -7173 0
1037 -9435 6298 0
-7155 -8472 8908 0
-6408 9228 -4326 0
3225 -2580 -9132 0
5721 2732 4812 0
503 224 7092 0
3596 -3727 -9251 0
4920 4444 2585 0
1306 7642 -9870 0
6396 -8447 -6859 0
1054 8640 8179 0
5841 8698 6518 0
6953 -1795 5507 0
64 -5654 24 0
1326 9993 -7821 0
1222 -9783 -2004 0
664 2818 -6702 0
-8348 -5228 -9808 0
4259 7958 6627 0
7351 4796 4538 0
3938 -2576 -2990 0
-6161 -7819 1679 0
-9983 733 2482 0
9050 2039 6355 0
-4093 -2351 -6220 0
6211 -340 1812 0
7947 -7328 -5127 0
554 -4846 690 0
-4594 9386 9887 0
2925 -630 -3528 0
5232 -5161 -6178 0
6598 5019 6029 0
-9657 6751 996 0
7291 -4444 4051 0
-3632 1586 -7821 0
628 4847 6990 0
-5442 -8683 -9466 0
-4804 -4368 3342 0
-7456 6695 815 0
-2403 6485 2362 0
-2 -9318 -9008 0
9310 -1150 3854 0
-2455 7282 -4158 0
-9099 -3409 1683 0
246 6988 -1639 0
6564 -6271 -9396 0
-1059 -8574 5439 0
4929 9327 8882 0
-9092 -2387 -1502 0
4386 -4178 -4 0
-4296 -6364 7954 0
2033 -8964 1691 0
2674 1035 -9105 0
-3590 3295 -1440 0
8835 5176 -6901 0
-8572 6224 -3808 0
-3198 7673 554 0
8416 103 8707 0
7764 5402 -6741 0
-7545 3744 4677 0
9635 -8800 -5572 0
-3637 -454 3379 0
-6191 -9867 -1921 0
-9104 -1671 -8229 0
4583 -5716 -70 0
-9073 6407 -8066 0
-5421 -8879 -9927 0
-9009 7725 2483 0
-3241 5777 -2987 0
-1531 -1400 2447 0
-957 -2089 -2171 0
8782 9166 3981 0
-1844 -3684 -5100 0
-7999 -1212 7654 0
-1535 3497 -3828 0
-6754 -1297 5860 0
-5187 -9552 8675 0
786 8570 2943 0
-3847 3133 9099 0
-2550 -4993 3027 0
-3035 -3686 -7336 0
-6947 -8549 4084 0
-4749 -265 -2971 0
5490 3940 -6678 0
7096 -9761 -6894 0
-9778 8837 4507 0
5807 -3059 4548 0
-2511 1402 1395 0
-6587 -8113 -8579 0
-2593 2204 4701 0
-3602 6882 -6276 0
-9261 -6291 6773 0
9910 -480 -8873 0
8923 -428 -6786 0
-5985 2360 9636 0
-9633 -9309 -2213 0
-2447 -505 6888 0
-6886 -6193 -1226 0
-9449 4994 9713 0
8317 -2191 6351 0
209 9492 9761 0
4853 797 7693 0
6335 -9295 -9894 0
-9567 434 2464 0
2651 8217 -9378 0
-1981 6404 -3548 0
-631 -8393 3174 0
221 9136 -3044 0
374 -3480 882 0
2483 7040 -857 0
-6066 8807 4502 0
7460 -6020 5242 0
-5426 -2234 2036 0
-2024 791 7980 0
-9727 -5416 2606 0
7033 5908 -3671 0
6740 6370 5615 0
-6852 5890 -6472 0
-5938 -50 9601 0
-7698 8690 283 0
8510 -977 -8082 0
-9967 -679 -7420 0
-6047 819 245 0
2770 7522 6659 0
-8342 7818 2550 0
1081 9830 -7294 0
-7204 -9143 -2535 0
-1642 -698 -7878 0
4694 -2171 -8018 0
-7157 7486 -2547 0
-8025 -4105 6103 0
7234 9292 8408 0
-680 5963 8409 0
5483 -3034 1007 0
-236 -915 1600 0
4602 -548 7273 0
2009 9563 -310 0
-6551 -1831 6510 0
-1683 1735 6429 0
3215 -7650 -1472 0
8693 -1004 -4122 0
1345 -8920 2408 0
9130 -6355 2545 0
4789 6388 -442 0
-3871 -6048 1369 0
5501 3084 4081 0
-6350 1469 6838 0
8140 1967 7714 0
7775 -1643 -9326 0
-2322 3598 4633 0
-8211 -318 8524 0
-2519 -4550 7315 0
384 4373 4146 0
8109 4437 -5963 0
-7153 -5572 -5412 0
-8110 4700 7338 0
-9338 8387 2747 0
461 8068 6459 0
5326 2363 -5082 0
5279 -1560 -9755 0
-6115 -7466 2806 0
857 -6390 2914 0
-1285 9732 -1843 0
1125 233 -6351 0
-1314 -4944 3435 0
5931 -508 -2161 0
9827 -8650 -677 0
-7256 4849 -8471 0
7283 5969 6398 0
395 -9839 5140 0
-1750 -7231 9696 0
-8494 777 -5365 0
-4719 6812 3207 0
9795 6411 -9502 0
-2036 5942 -5519 0
-4605 -2419 4030 0
-1708 -4742 1646 0
-7322 -7343 -6367 0
-4186 -5101 -9030 0
2905 3248 215 0
2658 -191 889 0
-8545 -4502 -8909 0
-8427 -4527 3095 0
709 1874 1271 0
-4995 7331 4441 0
2921 4014 5694 0
8935 -4876 8230 0
5122 5005 4729 0
541 -9241 -2038 0
-395 -291 -7350 0
7192 8581 391 0
4126 -4876 4764 0
-9540 -7397 -9765 0
5990 1008 -5906 0
581 7520 -4870 0
-6041 -3424 -2142 0
-846 9775 9899 0
2332 -216 3876 0
3865 7722 3367 0
-7702 9946 2629 0
-7070 8763 -2044 0
-882 3933 7740 0
5382 -6884 6420 0
2273 -945 2163 0
4752 -3759 6888 0
5048 -9969 -6301 0
4732 -3169 -8860 0
1378 -9306 7063 0
5816 -757 -8537 0
3448 5071 -259 0
8888 -109 3211 0
6181 3454 -6752 0
-9448 3691 -9347 0
9916 -1 -6939 0
-4124 4451 9436 0
-8813 8821 1803 0
4955 -5646 -9969 0
-3767 -1412 -1121 0
6011 5382 3522 0
-4996 4136 1004 0
-2045 3674 4324 0
-6542 873 825 0
9731 5325 -7642 0
-131 -21 -5979 0
-8834 3238 -2180 0
-8975 7655 5441 0
1368 1283 2173 0
3482 1463 9810 0
-6696 9294 -1492 0
4414 -5159 1586 0
-367 7806 -1511 0
-2800 3683 -523 0
-7637 1429 6479 0
-6389 -1176 -6370 0
-8550 -8371 1744 0
-6394 -3009 2386 0
-9275 5690 7524 0
4673 9689 -4058 0
-5835 9555 2996 0
2504 -3495 5824 0
2641 2418 9422 0
7814 -4898 -6095 0
-5788 8765 -7147 0
9207 3736 -5156 0
6811 -7718 8538 0
-3853 -1685 -8298 0
-8457 -3622 4227 0
-6452 -3097 -9816 0
9142 -5409 -9918 0
-8622 8543 5050 0
-1628 -7981 -3583 0
7237 -3433 1372 0
4054 -9111 2906 0
-3866 -4484 2235 0
2449 1028 -5343 0
8265 3170 -6019 0
-673 3468 -5637 0
1183 1601 1238 0
4479 -6576 9829 0
4837 -1889 2682 0
7894 -2905 -7818 0
298 -2697 4908 0
4 -4004 -3300 0
-9710 6446 7972 0
614 6763 2574 0
-4788 4731 8561 0
7024 5433 5528 0
2277 -9428 655 0
5293 207 2996 0
3762 6661 -150 0
-3965 4152 -4461 0
8372 -950 -3776 0
-8585 7934 -232 0
-3803 -595 -9159 0
-7672 3748 3125 0
2537 844 2504 0
5023 -1603 -5505 0
7530 -4524 7897 0
-9352 6846 5970 0
-8758 770 1768 0
-6613 -1957 -9203 0
-6463 5847 -4359 0
2298 7992 -5121 0
5384 9189 8818 0
-7666 -6009 -8438 0
9193 -747 -8270 0
-6648 6071 6828 0
9174 6257 4191 0
-5606 -8242 -1222 0
-7263 -2404 -2889 0
-1748 1524 -1518 0
1132 -7317 -6835 0
-7817 1535 1795 0
5552 7516 -7309 0
1406 -1932 -3445 0
-9071 -6406 -6371 0
4324 5475 -3585 0
-8675 -4642 2715 0
-9497 -8640 -3944 0
2348 6938 4769 0
-1112 -3046 -8529 0
-4572 -1569 -6610 0
-4417 -9029 -8513 0
-157 2841 7946 0
-7975 112 15 0
6009 7705 -9047 0
-3616 1872 5396 0
278 6065 4084 0
1572 521 -8924 0
3017 6121 5666 0
2143 5399 8655 0
-3503 -5749 -7934 0
-6766 3618 6261 0
3936 6979 -1710 0
-5670 -4489 8668 0
-1365 -6867 -7657 0
9246 -7580 -4776 0
-253 -3142 -3063 0
5249 8084 -9617 0
-5763 9251 -7105 0
-6119 -8418 1347 0
-6029 -1648 -4604 0
3860 -8403 7004 0
6417 7990 9397 0
-7874 8054 9225 0
92 2155 -6599 0
-5089 5262 5447 0
886 -2701 818 0
-7645 1778 -7737 0
-9262 1137 -4759 0
-7935 991 -3834 0
-3392 9438 -6851 0
3741 276 8969 0
-4793 1490 -6290 0
-4566 -7810 -1227 0
-5008 -1290 3058 0
-8257 2328 536 0
4353 -4107 3506 0
438 3585 -9453 0
-400 -6359 -7691 0
-9702 -1275 9682 0
-6774 -8259 7547 0
4773 -8272 8639 0
3015 2947 -4852 0
-9642 9357 -6946 0
-6823 -5263 -1052 0
7697 -980 1141 0
-6840 3984 1700 0
-4041 5218 -377 0
-5366 -2987 6939 0
-4593 2675 6747 0
-6413 1776 -244 0
2259 8215 1392 0
-4467 -8123 -557 0
-4177 -2203 2758 0
-3803 -5657 5066 0
-4445 -9464 1812 0
6853 -9972 9603 0
-6054 -2068 -8548 0
8396 -3329 -7168 0
-4041 849 778 0
-7485 -9159 3820 0
6861 5909 -731 0
-638 -1983 -8359 0
9633 7558 8394 0
9268 3943 9835 0
9802 5847 -190 0
6824 4158 -3431 0
-7194 8309 282 0
-9017 -8496 2142 0
-7017 -1257 -4449 0
8723 893 -7749 0
8436 -8203 1545 0
-1302 9037 -1544 0
-409 6572 2042 0
-3950 -7817 -2443 0
-4409 6634 1532 0
-2243 1744 -1964 0
-8583 -4269 8473 0
3620 4079 3318 0
595 1267 7173 0
-2919 -6039 2416 0
-9642 -1096 6267 0
-35 2731 7704 0
-7580 -2469 2428 0
6696 242 8731 0
257 9649 -1825 0
-3712 -3310 -1107 0
741 9642 -9778 0
-4632 7922 3379 0
8272 2126 9426 0
2384 8181 9210 0
-769 8043 2590 0
90 3070 3492 0
7922 -8630 -4583 0
-5611 5968 -6799 0
4465 -253 6746 0
8749 2114 -6777 0
8041 4744 -7378 0
-2118 -7839 9062 0
7789 -640 9741 0
-6879 -1698 -3359 0
-9084 -9622 7631 0
-6238 -9349 3377 0
3667 -7089 -3228 0
-1521 -8654 7576 0
2826 1042 -4477 0
1530 -8327 -1544 0
-5254 -3345 -8115 0
9642 6929 -8112 0
8745 -4829 -4924 0
4854 -6023 -3031 0
926 -8284 3276 0
-2741 3624 -122 0
8684 7395 8335 0
-4118 -5016 7644 0
-3888 1545 2071 0
-9355 6739 -8327 0
-3727 -557 7312 0
-8535 -4597 -1675 0
5102 7532 -6515 0
4908 -7381 1550 0
-1328 -461 -9156 0
-2735 7790 -4142 0
-9535 739 -5626 0
4482 2813 5653 0
-1416 -7236 7706 0
-6496 -904 2990 0
9231 -4976 3289 0
9455 -6602 -7187 0
-1215 6474 -9634 0
-585 -3488 -1113 0
-718 1384 -485 0
-887 -5219 -9790 0
9567 3391 4743 0
2895 -5206 7403 0
637 5648 1989 0
2278 -8788 -3091 0
-72 -4900 -6486 0
-4863 -3664 1775 0
-6067 -851 3118 0
-905 -9405 -199 0
-119 3573 -3260 0
-5944 3430 -4475 0
176 -8888 5943 0
-6670 -8256 8614 0
-7474 6660 -2411 0
134 -8730 -9240 0
-4714 9317 7462 0
-5533 9625 -556 0
-7637 -1967 -9483 0
7770 7308 -8222 0
4574 -6527 -7235 0
1952 7270 8055 0
3349 7209 -3964 0
-2631 4359 -9177 0
-3572 6707 -74 0
-5815 7390 4961 0
1419 -8910 -5509 0
-4059 -7595 -4420 0
-7968 3474 -4182 0
-8264 1941 -7204 0
-9209 -4494 2384 0
817 -7622 7015 0
-9875 -2434 -7357 0
-2024 8123 7672 0
8906 -8874 8695 0
-8195 -1441 7910 0
-4538 1655 4911 0
-7851 -2877 8613 0
140 -7886 342 0
6608 -2547 7929 0
2600 4387 -4659 0
-6591 373 4133 0
4080 -7701 -8453 0
-517 -8829 7744 0
-5460 -144 1875 0
-8772 7609 4059 0
555 3081 -6852 0
-9782 -6848 199 0
-4044 587 -823 0
-5244 849 293 0
-8482 -1130 -1869 0
8285 3975 8873 0
-8280 -9100 -5437 0
-294 -3830 -833 0
-5878 9864 -1671 0
6637 -100 -4559 0
-4469 -5464 8835 0
-600 3714 -9128 0
-6285 -1008 -9504 0
-7912 265 5756 0
9453 4608 -6528 0
3009 -5370 2880 0
-9425 -8718 -2198 0
-1020 -1067 3668 0
-3947 9841 -4799 0
-222 -5526 7959 0
-7280 -2518 8663 0
-2159 5418 5413 0
1984 -7105 -6024 0
-214 9580 -9353 0
7412 -4373 9574 0
8797 -4762 -503 0
-593 -7395 5894 0
-8719 2224 5509 0
5164 4552 -5837 0
4140 -5783 -4177 0
1782 -6755 -447 0
6509 9843 -4562 0
2763 -4683 4205 0
9403 -3497 9732 0
-731 8084 -7684 0
1562 1273 8508 0
7924 6316 7053 0
8422 -1114 3370 0
3921 7884 1311 0
3511 6046 -2049 0
4371 -3394 5858 0
7631 331 -6438 0
1138 -6978 7529 0
6070 4587 -2670 0
-9494 52 -3330 0
9838 -1573 -1751 0
1086 8732 -2149 0
35 -1123 -5556 0
891 8546 -5885 0
-986 -4890 9353 0
7700 3417 8778 0
4791 -528 3653 0
3045 -9272 -5094 0
2089 8875 589 0
3012 -1376 5250 0
8173 -7751 4987 0
-2532 -52 -6093 0
-867 9674 3041 0
7627 -351 -8005 0
6774 9892 -9323 0
-1877 6184 -1062 0
-8151 1125 4964 0
3376 -7282 9457 0
6295 9248 -6929 0
-7056 -818 7247 0
-5741 -6271 4430 0
-7083 7281 4869 0
6294 9621 -1275 0
5082 9643 -9990 0
-7403 -324 4568 0
-5779 -5503 7735 0
7429 -420 5943 0
7752 4414 -8372 0
8064 2027 1892 0
-1020 9326 5755 0
9644 9745 -1218 0
4353 2737 -1971 0
-4565 5462 -5525 0
3616 -581 -5639 0
3638 -2799 -2183 0
6366 112 -5931 0
5060 8862 -1552 0
9705 1827 5933 0
-8318 1637 7900 0
-7152 -3616 -3156 0
-6326 9871 2696 0
-3973 -4031 -9024 0
-8721 212 8800 0
-8935 -9195 -1371 0
-6684 -9443 1974 0
7247 -3287 -4831 0
1170 -5391 -7406 0
-1459 802 2920 0
3914 -4065 9097 0
5361 -1546 -1464 0
-9819 5503 6304 0
5880 -8501 -1854 0
9937 -6469 -1928 0
-8290 -7377 5965 0
2707 2490 -9967 0
-5285 9584 -1841 0
4190 1309 333 0
-7159 6871 1529 0
4132 7056 -4387 0
4027 -5609 7695 0
-7123 -6314 2078 0
2808 -2791 5354 0
-1396 4489 -8155 0
-2880 -298 -6422 0
-4542 7235 1171 0
5617 9939 2332 0
9514 4499 7982 0
-8214 -2387 8691 0
7396 -8067 -220 0
3767 -7986 -2512 0
5405 -7794 -8074 0
-1062 -3855 6392 0
-5106 1587 -2756 0
2072 -5408 -3813 0
-271 3867 -2043 0
2197 2835 -1791 0
5249 4608 2363 0
-1052 5514 -6955 0
-4865 9860 8368 0
-9197 -3338 5591 0
-459 -4294 8748 0
8022 4493 780 0
8980 3198 -6543 0
3167 3661 6336 0
1280 3312 9198 0
-9194 7572 630 0
-459 -6498 -4740 0
-6152 -6020 2165 0
-2320 6362 7994 0
2248 1313 1070 0
1482 -6834 -6004 0
-7074 -2243 5155 0
5531 7768 8834 0
-3239 9756 3431 0
-1573 4202 -9637 0
-1822 -3014 4708 0
5865 3553 -5577 0
-2990 6347 -2317 0
7631 8967 -6807 0
4537 -8693 -2916 0
-3294 -226 4938 0
3063 -5670 5933 0
-171 342 1424 0
-3400 -9585 -1578 0
948 -9986 -1819 0
-1317 -1355 3912 0
-6340 6214 -6940 0
-6263 -5860 5261 0
202 -3656 9971 0
5963 8399 -5160 0
6182 -7786 -1108 0
1975 -8 -8750 0
-7356 -9804 4766 0
8974 -5214 8097 0
4875 -25 7458 0
-9831 2406 215 0
3868 570 7224 0
-4770 8955 -9503 0
7263 819 1164 0
3495 5462 4524 0
7449 1810 -8821 0
9530 -7748 -5981 0
-7998 4045 2619 0
5264 -2371 -5130 0
5647 8104 -941 0
-5478 9289 -3301 0
4471 5702 -947 0
9889 1280 -1126 0
-3103 6190 -7260 0
-796 -607 -2474 0
8627 -6172 7153 0
6170 7089 -6748 0
4989 5642 2807 0
-7692 4186 7811 0
-7865 1807 7608 0
-1383 -1271 -3767 0
-9036 562 9232 0
4968 543 8494 0
8988 5891 1727 0
-3389 8950 8607 0
1135 -6805 -8766 0
-1498 -7056 91 0
-4869 8759 2052 0
605 -7791 257 0
1042 -2378 8905 0
-8722 -8618 5674 0
4805 -9510 2290 0
-6827 7822 -6929 0
9678 -504 9439 0
-359 1536 56 0
2008 5074 5009 0
-631 12 1050 0
-6872 901 5384 0
6605 -9724 4733 0
2271 401 8487 0
9159 -8412 -5245 0
6665 -1113 -1079 0
-3323 7537 366 0
-7406 2653 -8081 0
-8255 -2034 7217 0
-4858 -1613 4905 0
5967 5743 3712 0
6206 2758 -6691 0
-5946 -7142 9356 0
-472 -4425 8290 0
305 -7162 -1493 0
-5590 -9105 6185 0
107 7655 -155 0
1841 -7010 -3902 0
5374 -303 9741 0
-6974 2102 -9897 0
-4142 -8768 -4577 0
-2961 2085 -9126 0
-5447 709 -7331 0
6759 9331 -2865 0
1671 -6679 8469 0
3877 -6724 -9952 0
3594 9506 -7985 0
-7142 -6784 4244 0
-5180 8511 8805 0
-6127 4151 -4262 0
-6888 -7722 3203 0
-5159 8935 -5357 0
3794 -1508 -1825 0
-8070 -7128 -3628 0
-5539 1544 5164 0
4794 6651 -9852 0
-7941 -759 9686 0
9634 -9856 8823 0
-288 8772 -8092 0
2833 -6394 8078 0
1343 -7009 -5999 0
-3714 -2 -9860 0
6063 -2840 7818 0
2062 7119 -5508 0
6424 2922 -3178 0
-6491 -3851 -7611 0
-9804 9999 6762 0
7535 4912 8952 0
7348 5702 -7625 0
1695 4993 7290 0
7181 -4254 6281 0
-6544 3937 570 0
1286 578 2520 0
9123 3332 -990 0
-2382 2160 -4485 0
720 7962 -1190 0
-6737 4635 1207 0
3905 -2943 3447 0
8803 -3299 -1339 0
-832 -2514 -7925 0
-8516 -7528 4331 0
-8335 -1461 -4939 0
-5556 6123 3746 0
8317 -8123 -2062 0
2924 -3285 -8143 0
-9734 -1565 1228 0
-5369 -3924 -5445 0
-4107 -8505 5443 0
1900 8118 3488 0
203 -521 -7850 0
-4619 4687 -606 0
-6370 -1658 7525 0
-6608 6468 -221 0
8000 -2766 3456 0
1222 1227 4622 0
5814 -5285 -4406 0
9327 -8630 6258 0
9186 -7956 3771 0
-7177 7381 6210 0
-8498 9317 2199 0
-5743 7261 -3958 0
-6798 156 2783 0
-8689 -1858 6943 0
-5922 -8333 -9165 0
-7178 -4888 -8754 0
-1998 3937 -8411 0
-6115 3194 -2894 0
4824 -9060 -4107 0
-1531 -7630 1352 0
9459 6646 7117 0
9434 372 713 0
807 4853 -4790 0
2043 1519 2912 0
246 -4424 9012 0
-1229 9837 -9324 0
7012 -1395 -7089 0
3411 9061 6691 0
8581 -1384 9353 0
6572 7211 9901 0
-8511 -2512 -1367 0
3814 -8294 7605 0
4561 -6925 7971 0
-6379 -844 1594 0
6484 6898 -300 0
3999 -2416 -7828 0
407 7740 2709 0
-6060 -6356 -8855 0
2511 -1816 -8383 0
-9842 7237 -3859 0
5292 -5333 -5039 0
-808 -3738 4312 0
-3757 4890 -1428 0
3601 1658 7409 0
-3082 -9602 -5597 0
3306 -2001 8357 0
-3021 1851 -1725 0
7134 3506 5988 0
9105 -3253 -5172 0
9327 2522 2717 0
4381 -9516 -4962 0
969 -2283 4175 0
-3306 126 4561 0
8260 6482 4281 0
-4109 -1 492 0
8843 -4361 -7566 0
-6250 7330 -7031 0
-4895 -4767 2670 0
-1855 2802 -6298 0
7700 1536 -5004 0
6932 -1176 -4648 0
9199 -4687 1901 0
2252 -4035 -9854 0
-8896 1923 274 0
3039 403 -6426 0
2992 -4373 -7244 0
-1846 -1291 8191 0
-6633 9091 -1110 0
-3108 -1130 -3816 0
-5934 7760 -857 0
1263 -739 9527 0
-2201 -97 -6693 0
5860 6844 6903 0
-1320 -7839 8195 0
-682 -2567 6921 0
-7673 1704 51 0
-1019 325 -41 0
1679 -3601 -6354 0
6775 6219 -3039 0
-221 8561 -8751 0
326 4821 -1931 0
1843 8453 4022 0
-5586 -8963 205 0
8685 8998 -2636 0
1561 -6424 -3790 0
7702 4793 -4393 0
2605 5846 -4680 0
-3335 -3480 -6600 0
651 4380 2207 0
8444 -9202 -1326 0
8725 7884 -9081 0
-9656 9913 -2728 0
2260 4510 -5256 0
3686 -697 -1634 0
-7683 -2075 5686 0
-9565 4564 4632 0
-7542 1764 -3282 0
7281 -6957 -5816 0
5597 -5786 -6921 0
-6751 -8031 -1695 0
-6759 5817 -2444 0
317 -6409 -6572 0
875 2233 9801 0
1256 1459 -4932 0
-267 -1479 2571 0
2665 -2831 2632 0
7825 1720 -834 0
3493 -3454 8090 0
-4458 -880 3106 0
-3786 3368 -7266 0
8935 -5788 6 0
6189 9264 -9692 0
-5170 4231 6800 0
-4954 -9601 9956 0
-5831 -9679 1338 0
-2363 -4929 -1015 0
-7208 1253 -6036 0
5255 317 -2637 0
-9753 -8845 -4848 0
9239 -3091 -7743 0
1238 2912 -1543 0
-6902 889 -9930 0
7954 5246 -3698 0
-5539 9329 -5388 0
-3353 -7065 -5402 0
8028 -8860 4240 0
-2173 5231 8437 0
2649 1909 -2709 0
-4498 2953 -5006 0
50 324 -4690 0
6048 1010 -1307 0
8347 7625 -6168 0
-9837 9004 8165 0
6811 1800 7547 0
-6037 -8033 112 0
-734 2653 -4766 0
613 7682 -2871 0
4733 9499 -7235 0
9104 -782 1280 0
8239 -3514 -8014 0
-3360 -4502 9809 0
6167 -5975 8881 0
-5616 -8600 1740 0
-4652 6850 1164 0
-5052 -8893 9260 0
7956 -3778 -2163 0
3241 645 -2677 0
-1098 7255 1658 0
2824 4832 -7306 0
-1148 4893 2859 0
-6110 -517 -3816 0
-6214 -1001 5758 0
-4124 9311 -6817 0
6685 1956 -1339 0
814 5451 8417 0
5283 -1517 1862 0
9459 -5308 -3016 0
7721 7873 2770 0
4231 -5474 -7295 0
4051 -8044 -8227 0
-7085 2338 1831 0
-7725 -4655 -2238 0
4054 6522 -6636 0
1782 -4995 2765 0
-4907 -9908 3572 0
4252 5073 8162 0
9352 -4826 -6612 0
2296 -4979 8930 0
-7818 -1474 -972 0
2032 -7485 -4946 0
9027 9330 2720 0
6540 -7637 -690 0
-1365 4775 -159 0
-1018 4898 -347 0
-2672 -2129 3170 0
3137 -7257 -42 0
3467 -8211 5086 0
-3855 -2317 -4015 0
-8447 8959 6270 0
5495 6558 -2373 0
-2237 -9429 -7363 0
-226 8200 2384 0
-7107 1584 5799 0
-1445 -9943 7552 0
-8363 5843 7459 0
-925 4547 260 0
8195 -2426 -5023 0
-6203 2873 -3139 0
7748 5866 -7183 0
2190 7356 -543 0
3829 -3054 -2047 0
7528 5483 1653 0
35 -7297 -7350 0
-2750 -9573 -4798 0
-2691 -2128 -2531 0
7098 -1891 6054 0
899 224 2279 0
-9078 -8482 3967 0
5561 4184 -4325 0
-1215 2643 3309 0
7429 3515 8296 0
-1566 6155 -2149 0
-7729 -372 4209 0
8098 -5218 -4912 0
1827 6346 4657 0
4287 9527 2623 0
-6653 -5289 3726 0
-3182 -7506 -4412 0
3975 9123 -4985 0
1558 -565 7574 0
9114 3364 -5024 0
9790 8319 2662 0
4804 9734 7952 0
-8313 -6354 -2799 0
-5460 -3809 -8770 0
6216 -5884 6423 0
1883 -9451 -4052 0
9900 -3540 -4166 0
7153 4471 7564 0
6735 -3767 -7429 0
-907 -8999 8947 0
9345 6460 361 0
-9085 -3741 618 0
-4517 -4615 -7283 0
6935 -5899 -8511 0
-7620 -6740 3189 0
-6837 -4450 5913 0
-8343 -327 -3026 0
-4006 -6572 -2957 0
-179 -5303 -525 0
7931 2325 7477 0
3975 8498 -405 0
-7762 43 -6162 0
-4260 -7138 -7863 0
2155 963 -4805 0
-7107 6624 -1143 0
6179 6597 -3896 0
-4254 -7793 8888 0
-7093 7243 -503 0
5995 -1356 -4319 0
-324 9224 -4851 0
-5106 7226 5763 0
-3397 4760 992 0
3035 -3087 -7040 0
-2638 -4111 5377 0
3493 -1081 3345 0
-5838 689 5966 0
-786 -6726 -1615 0
-303 -8597 5204 0
6340 -7469 -4396 0
-8887 5836 6082 0
-6724 5796 3120 0
3406 -9250 4994 0
841 -1063 -4326 0
8122 -7112 -2983 0
1099 -1887 1113 0
-5361 2344 -1573 0
-9501 -1682 -4788 0
-5087 -6508 1844 0
6358 -1738 1026 0
-9552 8319 -322 0
-2530 -855 -4005 0
5164 -674 -9620 0
-5304 -3634 -4217 0
936 6404 8796 0
128 3703 -3625 0
-2837 3611 7068 0
99 -2497 -2951 0
-8930 -3712 3506 0
8515 820 8737 0
6112 3032 -6852 0
-5214 -2411 -4889 0
-4830 -217 1450 0
5562 -1338 9073 0
-2176 -359 -3834 0
-3590 6161 3967 0
-8536 3251 9303 0
-479 7374 4803 0
-4116 -3226 5790 0
-8785 2430 262 0
9583 485 4760 0
-7709 6162 227 0
335 -6230 7663 0
1602 5434 9820 0
8503 -5522 -9970 0
4826 -3664 -9608 0
767 3634 -531 0
-2836 2869 -3083 0
3918 -142 5450 0
-182 7576 2736 0
-4430 -8034 4030 0
8103 8766 3356 0
-1934 1329 -2373 0
-1010 -8715 -3186 0
2103 -7083 -7610 0
-8396 -7853 -293 0
-6718 -9204 -5990 0
6442 -7429 6981 0
-3952 -6439 -220 0
-5322 7902 7060 0
5429 -2962 9792 0
-8324 -6553 -1517 0
3307 4135 9636 0
3973 8784 9503 0
4393 6781 -6002 0
-9104 -1360 -761 0
8745 1839 -2279 0
6796 -2449 -7759 0
-2775 5969 5887 0
-7354 3416 -4277 0
-8761 -4351 -1936 0
-5223 -9270 5474 0
5229 -1245 5617 0
-562 -7930 -3688 0
-8211 -3999 -1745 0
7949 -8710 -6713 0
246 -8939 9906 0
-7937 9193 -9916 0
-1588 904 6237 0
-9370 7922 9200 0
-9195 7780 6373 0
-2591 -1188 -5846 0
9313 -3243 -4364 0
4401 -6250 -904 0
-3901 4637 -30 0
7282 645 -4167 0
9145 -4177 7369 0
2887 -4493 5515 0
5190 -290 -9241 0
6295 -9735 -7985 0
-6502 -3225 1844 0
-3071 879 -7513 0
7637 9773 3625 0
-3309 -8634 -510 0
-1867 6960 3986 0
-7108 -6678 -645 0
-8361 -7334 2258 0
7084 6518 6460 0
-896 -5471 9193 0
9112 4208 6421 0
5290 -563 1162 0
7321 4525 -3081 0
2166 -1738 -1444 0
-8349 6295 -5829 0
8084 8774 -4175 0
1515 100 -3460 0
7708 -2541 -2846 0
-596 3213 -7608 0
-159 -5768 5541 0
8367 3902 -6938 0
6811 -1607 6487 0
2538 2878 -9605 0
-5305 1087 -9289 0
-6005 -6786 1492 0
7674 -3891 5239 0
5197 9369 -7702 0
-5912 8542 3263 0
2776 6367 7339 0
-6863 2107 8022 0
8945 -4943 -9854 0
8534 -4796 2343 0
1253 -5346 1650 0
-9512 -2440 -7702 0
6499 -7126 3269 0
5101 5839 1936 0
5690 2304 5049 0
6158 1028 3539 0
-313 -1415 477 0
-8112 -9077 -9795 0
-2929 261 -5767 0
9287 8976 -5566 0
-2035 5389 698 0
-6816 9584 8910 0
8905 -5022 6040 0
9049 -9927 281 0
6140 8174 2850 0
-1934 5366 8427 0
-1883 8267 -1778 0
5629 1305 -7594 0
9487 5860 8773 0
-6190 -5869 4497 0
426 2008 7250 0
-3449 -4518 2073 0
-58 -8519 3030 0
8324 1483 4167 0
-4426 -2822 -897 0
-6627 -3326 -5648 0
-2095 2476 30 0
-8774 -7846 -1593 0
-4786 -8040 5325 0
-970 6446 6032 0
2202 6293 -1668 0
-5724 -1715 3911 0
738 -612 -3480 0
2757 5532 7591 0
613 5041 4852 0
-8321 -791 -7806 0
-62 -4515 3617 0
8824 5315 2796 0
2870 9987 8119 0
-1417 -1072 7763 0
-5793 6225 28 0
-9759 4798 8000 0
-4816 7482 -272 0
5307 -9124 -4306 0
-2213 -5553 -7023 0
4495 -2402 2898 0
7996 6974 9510 0
-9008 1669 -4405 0
3790 -7426 -8088 0
3196 9200 -8755 0
-5394 -4869 4462 0
3367 -6156 1186 0
-2299 6900 2022 0
9417 -4912 -1735 0
2636 9923 7626 0
5698 -229 -1109 0
9781 1838 -862 0
-4311 -5383 -9799 0
4323 -5770 3235 0
9730 7791 5576 0
-8983 2354 -4314 0
-533 -6593 -8776 0
-4391 4213 2407 0
6452 -5612 -8313 0
8994 2310 -8662 0
-4361 -1833 -7762 0
-1378 -5849 3085 0
9779 2846 7047 0
-2212 -1835 6120 0
-5959 -6536 6623 0
-1892 753 -6290 0
6385 1672 6516 0
7667 -3470 3094 0
9420 8369 -2574 0
-4503 3820 -1899 0
9707 1031 4194 0
8348 -3008 172 0
-9267 -1578 -4612 0
73 6375 -1377 0
-7640 9008 3116 0
-9738 8382 -6745 0
3507 4351 -5990 0
-5178 7511 -1252 0
-8503 -3477 -5720 0
1059 -4749 8793 0
4207 -4053 -3332 0
2447 1154 -9416 0
-9225 -4757 6986 0
-1549 4697 -4032 0
2134 6133 158 0
-8318 9949 -5578 0
-3449 -7030 8441 0
6662 -9808 -2755 0
3519 -5167 -1042 0
-1978 6812 6218 0
-9299 -1601 5963 0
3110 -6153 5949 0
-3759 696 9244 0
-134 -4170 -658 0
-5612 5825 -8500 0
-4018 4377 1655 0
-7680 -664 -4428 0
-9391 -6979 -991 0
-9193 5016 2437 0
5949 2842 8301 0
2480 -3851 -7704 0
-1200 7271 -9516 0
6004 -5105 -4758 0
-731 7522 -6789 0
-5408 7518 -5371 0
9387 6742 289 0
-8940 -9777 7840 0
5651 4724 -2054 0
-5175 -5930 -2669 0
-9355 -660 5054 0
-2394 -4845 1377 0
-8466 -2257 -3389 0
-3902 -2584 -2729 0
-1481 -1063 -8860 0
1855 -1187 7760 0
7766 9524 8459 0
-444 7236 -8339 0
-4016 2298 -9575 0
-5346 -5616 8361 0
1670 4646 -6343 0
-7650 9047 -6718 0
-9918 -7219 8180 0
5820 6949 -6765 0
-4802 -3841 9907 0
-2188 9311 -2760 0
4288 934 -2987 0
5154 -3361 -6775 0
-4690 -7922 -3741 0
-4047 -9589 -9797 0
6355 -1347 9107 0
-2332 3726 2306 0
8911 2394 587 0
4844 -2673 6285 0
4347 9352 -8992 0
-7414 9303 5009 0
-4780 9935 4061 0
-9546 -5262 -5431 0
-9264 -2620 5731 0
1677 7035 -6053 0
5655 9894 5962 0
-1680 -1065 2977 0
-4721 9000 -1103 0
-3028 -2612 2765 0
-6367 203 -8346 0
2867 2541 6511 0
-3869 -1531 6253 0
5620 2467 -6138 0
-3598 8074 -3841 0
-8903 6011 -7615 0
1695 -1229 -3156 0
9763 4996 -8890 0
-1357 -4891 3273 0
-8750 -7088 -9539 0
7420 9924 4532 0
2996 9345 -2334 0
4669 243 -2820 0
8175 3371 36 0
-780 -4291 -7771 0
-4104 4225 -3448 0
4887 3155 -7958 0
-8518 3162 -2112 0
3494 6190 6675 0
9167 7610 -7875 0
3807 -5798 3142 0
1665 -9437 402 0
7922 5290 3005 0
3117 -986 -2008 0
6553 8920 -9267 0
5358 -1623 2138 0
7693 -8853 1509 0
6160 -9672 -674 0
6338 -4122 -3183 0
2274 5350 -9936 0
-4255 -4513 -4087 0
1146 -7856 -6827 0
-7246 6142 -5751 0
-9728 -3173 8124 0
-8282 2287 -2775 0
2571 -9900 -6811 0
-4146 -456 -6337 0
-3849 6252 8271 0
2879 -9909 -7068 0
85 -1553 -2491 0
-7062 834 -978 0
-9633 -9709 2118 0
3127 6550 -8530 0
-6916 -2205 385 0
-456 6555 -5096 0
3858 -7864 8222 0
9002 3398 8554 0
-5754 9823 2186 0
-6210 -4154 4304 0
7366 13 -931 0
5916 5656 -1027 0
-4243 8365 9562 0
-5687 3163 8574 0
-2565 6305 -3824 0
5615 -5188 3264 0
5061 -6782 -8059 0
575 -2887 9958 0
246 4938 -5319 0
8175 -3222 4996 0
5315 528 9835 0
7922 4872 -9352 0
3266 -1039 538 0
-7728 5228 -4774 0
-7545 -3847 6691 0
-678 -1859 555 0
-8792 4910 -7185 0
-9575 2438 4889 0
4400 3208 8349 0
6557 -3444 1271 0
4214 -9274 290 0
-3721 -411 855 0
-9056 5078 4857 0
-6896 9640 -9402 0
8960 9241 3487 0
-1598 -3643 -4698 0
-6286 2083 -3218 0
-1497 4938 -2654 0
-8982 5423 -7091 0
8978 -1509 -5034 0
2282 3295 -5746 0
-538 -951 9463 0
-9237 660 -1127 0
522 54 -4533 0
-5984 2256 -9147 0
9388 -8971 -2535 0
2374 3516 -1356 0
-9444 5171 5105 0
798 9441 8251 0
-6108 -7309 -7494 0
275 -1574 -3010 0
-8825 5868 3724 0
-2513 -5464 57 0
-5802 -8878 6562 0
-4643 -5975 238 0
6411 6206 2659 0
5759 2152 2580 0
5123 -2711 -1605 0
5040 -3433 3450 0
-1661 6361 5916 0
-2287 -5393 -1504 0
4240 -3060 -7561 0
1382 -500 -963 0
5467 -1834 8866 0
-51 4948 -7439 0
4354 -5436 -3761 0
-6013 8547 -8379 0
-9654 -7558 4289 0
5588 3548 2614 0
8075 -6726 8979 0
-6252 -2439 6313 0
6391 2422 -1330 0
1906 6363 2487 0
7116 8331 -6528 0
-8659 9601 4722 0
5157 -6041 -7235 0
891 -773 -4679 0
-9687 3527 -2224 0
-9999 -8593 5663 0
-6700 3505 7041 0
-8330 6891 -4295 0
2132 7745 1535 0
-4565 9493 -6792 0
8051 -5449 3922 0
-4088 -3162 -882 0
-3596 8678 -7856 0
-4311 -3218 401 0
4888 -7032 -2289 0
-6989 1956 5079 0
3128 6758 -4588 0
-7611 9266 -1345 0
-7146 8870 -9618 0
4469 471 -2044 0
5386 -4362 -9144 0
8357 9104 3264 0
8402 8225 7800 0
-1899 -3840 -4912 0
7766 6917 -3326 0
8816 -8662 -8896 0
-3616 -491 -8522 0
-4320 -5262 2069 0
-4258 8783 -753 0
9758 -7888 -3690 0
7912 2818 -6245 0
8721 -4525 -2680 0
958 3586 -8221 0
3585 -9852 3974 0
4724 -8553 2662 0
4807 -352 -8310 0
9878 -5341 968 0
3081 3748 -7616 0
8847 -9930 6200 0
7353 4958 1172 0
5679 9485 5426 0
4879 6180 5 0
5833 -2299 777 0
-3233 -1038 -6241 0
-5112 6532 -3543 0
3944 -7447 -6530 0
1501 -2700 2733 0
-8114 6230 -6219 0
1280 3363 -6354 0
70 -7652 -4270 0
3432 -2214 4937 0
9752 5426 -5462 0
-8915 -1154 7544 0
-2855 -8556 8157 0
-4511 7379 5595 0
-2532 -2420 8295 0
-582 5060 -5807 0
8137 -1302 307 0
-8042 8268 -4608 0
-8276 -4743 7598 0
-1122 -2846 -7380 0
1698 -5254 -9192 0
-1452 8284 7243 0
-1782 -7338 7025 0
6108 -7660 1442 0
9080 9987 2715 0
9858 133 6408 0
1800 -979 331 0
-959 3777 6360 0
-6205 -9477 -9247 0
-1969 8362 -8918 0
-2451 9326 2663 0
-1995 482 -2527 0
-4232 -7677 -198 0
-884 -5868 -4445 0
-8218 -8883 -875 0
-4862 3738 8892 0
6771 6847 -7976 0
7501 9383 1694 0
-6011 -1001 -174 0
5474 5706 3980 0
6827 998 2013 0
-3161 2153 9135 0
-3561 2805 -5195 0
3319 3445 -2186 0
-9140 4448 7676 0
5442 1879 -1228 0
-2747 -1295 -3125 0
-7816 1272 -2831 0
2724 4280 7531 0
1025 -6474 -9157 0
3755 -8944 -8767 0
3771 660 -4002 0
4062 -8951 -2193 0
-4963 -866 7360 0
-2182 2034 -335 0
-3405 -1491 -8819 0
6072 2648 9914 0
6775 6546 2888 0
-771 -9237 7646 0
-3816 7842 6352 0
3942 -9442 -5566 0
6817 -1401 9818 0
-3968 -7728 -3918 0
7210 6914 -7876 0
8779 -3398 6171 0
9124 9362 -5734 0
-5149 5889 -9243 0
3863 -9383 497 0
9021 -9991 -2279 0
4561 8976 -3418 0
5528 -5519 -2201 0
12 -220 -9009 0
-223 -3694 9399 0
-9313 -9733 3020 0
1444 -329 7212 0
6776 3332 56 0
2839 -6448 7391 0
1295 -2832 9992 0
2968 1243 -8415 0
186 -4382 2072 0
-2486 7324 7220 0
-280 2901 1631 0
9963 1857 3081 0
-9003 9174 -6862 0
7832 -5214 2887 0
-8679 4359 866 0
-8724 4437 183 0
-8317 -442 -5402 0
7091 -9385 -194 0
4572 992 -7161 0
2968 -7503 -6034 0
7712 1744 -8509 0
-9444 268 9465 0
1253 -6666 6789 0
-2914 -5536 2220 0
-2788 2084 737 0
2938 8674 -6865 0
-3424 3631 4756 0
4745 7372 -9729 0
-8735 -1886 8124 0
9074 -8958 4240 0
1839 1147 -503 0
5621 8916 -986 0
-1052 5699 9175 0
-3482 -3207 -3213 0
6569 66 1480 0
1662 413 9711 0
3840 -2574 -4979 0
-8042 -2305 5735 0
-7234 -920 -6780 0
4505 8219 -3892 0
451 2920 6692 0
6451 -4780 9054 0
9787 -3528 515 0
-8660 -4455 -9960 0
655 -622 2348 0
1892 2373 1890 0
5269 3628 6765 0
9278 9509 -3076 0
-4015 -2593 -4603 0
5191 -6649 -6818 0
-2999 -6473 -6891 0
-9295 -4687 -8018 0
-291 7586 4838 0
-7346 -7592 -847 0
564 -5680 2028 0
-5859 -3361 3474 0
7629 -7776 -509 0
3576 669 5660 0
-3051 2808 2549 0
-1298 693 7392 0
6382 -9743 -5944 0
-3201 -6515 7309 0
7246 4619 7055 0
4222 -9850 1916 0
-6417 5502 -1106 0
-8310 4813 3372 0
-1223 -8758 8982 0
6016 5584 9442 0
645 -3760 -6055 0
7720 -7345 -1784 0
8514 -7142 -2928 0
1877 7989 8301 0
-7174 3781 -4859 0
8111 -9334 5616 0
1327 -4242 6529 0
-76 478 -8351 0
7606 -9954 -4476 0
-6394 2204 7882 0
-3332 1794 -5176 0
-7725 -3351 -2370 0
9561 3378 -4346 0
7011 3907 -5916 0
9761 -3336 -5208 0
3119 -1357 -9795 0
8232 -3031 1062 0
-8927 2854 -5218 0
-2560 -2736 7883 0
1747 7 -3507 0
4094 2689 -1887 0
-8700 7950 -1455 0
2915 9523 -213 0
-7693 7812 -5371 0
3987 9896 -4415 0
-9189 -6452 7928 0
-917 -299 -8606 0
-231 -9132 -3266 0
-7569 2037 -1549 0
8491 7862 -2448 0
-1096 8169 6853 0
-3413 -7639 1324 0
7337 -3158 6360 0
1080 -9328 8930 0
-6393 -7153 -969 0
-5610 8817 -47 0
8713 -8763 -1590 0
-7710 -7309 -2312 0
-5814 2834 4009 0
-3373 -9073 -3616 0
9728 -718 -9968 0
1759 -5003 9154 0
-419 9842 4050 0
-2065 -313 9373 0
2852 2630 -5036 0
2045 -8999 -5117 0
-9575 5148 -7938 0
-1088 5469 2943 0
7950 -1359 -8581 0
2879 2414 4001 0
1715 -4363 2448 0
7286 -5478 2512 0
-5212 1154 -8579 0
6773 5168 7844 0
-4388 5101 8437 0
-3104 -5369 9665 0
-4362 8072 7620 0
-4227 -5788 5496 0
-5144 3502 489 0
-7504 -5414 667 0
-525 -9593 902 0
7074 -7408 -8184 0
4878 -8644 -6235 0
-8702 -4817 8501 0
-6973 -6626 -2703 0
-8648 -7108 -1283 0
-9123 -1248 -3201 0
-4730 7930 -8373 0
-6423 8920 -9605 0
-8898 7367 9474 0
-560 3057 5281 0
6018 4713 -1826 0
5376 -5161 9145 0
8362 -2954 9532 0
2472 4868 -9214 0
3081 5656 -5044 0
-4661 4287 3115 0
-7073 -2114 -5099 0
7203 2515 2295 0
8218 -9947 -9902 0
814 8042 3378 0
-9605 -7816 -2783 0
3479 1056 -4825 0
-2474 -3635 6489 0
1401 3016 -5730 0
-6491 9795 -6388 0
-6153 2669 4952 0
1001 -9610 6756 0
-7318 1193 -4247 0
-7047 9461 -2477 0
-7272 9720 6127 0
-4683 8227 -8452 0
9254 -3787 3907 0
6675 5180 304 0
-1190 -2401 -6040 0
-5742 5927 8718 0
-7744 -9559 -4197 0
-4699 8527 -2459 0
734 6420 -9929 0
-1420 -4586 -8841 0
3367 -5610 -476 0
3499 -6556 9776 0
-2906 1522 8052 0
-3001 -2856 -175 0
5121 5626 -233 0
8310 -3931 -1980 0
5554 3954 -3418 0
-8152 -1248 -5473 0
-9551 -7244 -3692 0
-5306 -6859 7245 0
-2898 1922 8732 0
6433 4577 8738 0
-5404 5949 -5345 0
-5757 9502 -9971 0
7812 7790 5325 0
8566 6788 6984 0
40 3656 -2301 0
-7071 -6800 4550 0
4576 4347 7468 0
-6501 -1703 -1761 0
-4473 3554 2807 0
7024 5006 -5061 0
3125 1359 -2026 0
-7950 -8023 -6101 0
3757 6860 -4162 0
602 1153 5635 0
-3437 8702 1479 0
-801 -2461 -3859 0
-2129 6811 -6788 0
1907 -6102 -3058 0
8351 411 -1543 0
-3788 -1877 5699 0
3319 5015 -9857 0
-9518 7747 5617 0
-7989 2257 2448 0
-4429 46 -4741 0
-9284 -4052 -4678 0
3823 7876 6410 0
-3350 1608 -4854 0
-885 -1840 4098 0
9240 2689 -6811 0
-735 -1536 7975 0
-6873 8335 -2227 0
2828 -5341 2155 0
6445 -7843 -292 0
-1289 8388 4313 0
-1536 5303 2230 0
7206 -6517 9363 0
9334 4522 -7533 0
-9688 -3241 -6881 0
2037 -1769 5466 0
-5268 9911 7303 0
298 -226 7934 0
-8328 577 -6241 0
3421 -9077 -4548 0
-4667 -5774 7048 0
4558 -7909 926 0
-2337 -1843 6859 0
4237 -4409 8097 0
67 -9704 9861 0
9678 -3176 8373 0
6933 9369 -8613 0
-3396 6592 3651 0
-9690 -560 -9820 0
-5994 -9909 -4655 0
-9546 -1675 -1840 0
7059 4767 2516 0
6621 3254 156 0
-4341 3457 -5219 0
-5719 6216 3633 0
-6225 -1510 -8019 0
1865 4646 -1563 0
-393 -4077 -7670 0
-495 -2941 3008 0
3701 -482 -3577 0
1085 4829 -3274 0
-7548 1290 -2970 0
3420 1594 1792 0
1261 -2274 -1031 0
-4272 1914 2477 0
-5046 2152 3208 0
-7026 6440 -5491 0
-4900 -2740 2747 0
-9011 844 -4995 0
6144 4077 -4999 0
8064 5920 1300 0
5079 5120 6922 0
-6314 -9942 6690 0
-7804 -3729 3152 0
3576 9655 332 0
333 -5604 652 0
7281 -6189 668 0
-7506 1909 -2843 0
1714 5892 263 0
3128 -8059 3979 0
8455 -943 -9825 0
-8737 7546 7784 0
8956 845 -2264 0
-9214 9727 5660 0
-8857 7451 1358 0
-2203 4088 -4412 0
1850 -5781 -9807 0
-8523 1237 2060 0
-1908 -4006 -6968 0
-1451 -6022 9406 0
-8197 -6349 5703 0
-7464 5736 -2508 0
-7098 -8639 3626 0
2406 -7855 -3349 0
8245 1688 -6214 0
-9687 -2521 1045 0
-625 -6725 -3844 0
-9053 5570 9003 0
28 -8645 -2111 0
548 -2805 -554 0
-7460 -6588 1004 0
2816 -2487 6647 0
1700 -6982 7933 0
-2526 -2847 1081 0
-6871 -3457 2163 0
3062 400 -2016 0
-1541 -7182 -1904 0
1585 -7679 -4419 0
-4361 8485 4474 0
8603 -4096 -2537 0
-8437 9190 921 0
-8971 1773 5021 0
-1693 7961 7841 0
-9310 3768 8284 0
-2711 9367 627 0
1272 3478 1459 0
-1943 7564 4082 0
6837 -8370 -4376 0
6381 7438 -5815 0
8396 -1792 2754 0
-4356 -9218 310 0
329 6308 -523 0
-939 3338 -6192 0
4457 -4574 -4439 0
1791 -5096 1151 0
86 340 -2415 0
1324 -2982 -1751 0
202 -5453 -9434 0
2167 9413 9896 0
-1051 -2265 -7541 0
-9151 7431 -5259 0
-4565 9247 6067 0
-3100 -140 6274 0
8002 3731 -4167 0
-475 6926 8424 0
-30 5196 -4312 0
-9479 -7237 7894 0
8771 -7278 1214 0
4445 -4141 -6575 0
3586 -6850 1086 0
6801 6696 6673 0
4385 5481 630 0
7968 704 -554 0
-3092 1026 8321 0
-1310 6750 -3668 0
835 7368 6095 0
-3660 8480 -105 0
3104 2846 -4032 0
-9986 -8110 -4756 0
1772 4156 8292 0
-4617 -8331 -7738 0
1393 -6397 7726 0
-4628 1972 5648 0
-8586 5665 -3392 0
-2976 2936 -2360 0
5358 2685 -611 0
-2620 -5740 6154 0
-6311 -297 5860 0
-5281 3712 1943 0
265 1345 107 0
-4598 8268 6482 0
-428 4476 -3112 0
-3371 -3325 7542 0
-8169 -1071 9990 0
-3973 -2262 -7040 0
-3997 4316 -4084 0
-5128 -1342 -840 0
5247 2858 -7040 0
9026 -9523 -357 0
-8921 8276 1471 0
2955 -4571 -547 0
-8283 -8521 5625 0
8011 -1466 2027 0
9643 -7973 6316 0
-4560 8021 6917 0
515 6587 9693 0
-6389 -3326 1525 0
-3355 -4992 -1105 0
-9724 -9189 3973 0
-8105 2743 5431 0
1152 -5255 -6484 0
-9290 9262 -8426 0
-3489 3576 -5711 0
-9950 8443 3261 0
-9381 5169 -5897 0
-8826 8009 2604 0
5626 -1639 2820 0
-6466 -258 8930 0
-9603 3390 5476 0
6935 1412 -9477 0
-7313 9669 -8122 0
496 3632 6480 0
-3601 5514 -6057 0
-2393 9778 -1927 0
1460 2615 -8861 0
-2685 -6853 4605 0
2774 -7515 -6975 0
-9284 9592 -3527 0
-6487 2639 -184 0
5445 -8030 -9096 0
9921 -2695 8409 0
-6639 -9359 -1089 0
-6728 -3811 898 0
-4709 -3807 -4119 0
-2060 -3120 -426 0
6169 4681 9471 0
3468 -4298 5482 0
5002 5135 -2385 0
6114 -8751 1274 0
-9717 468 1019 0
6017 3625 -1746 0
-1239 -7522 9082 0
3399 -3392 -8892 0
3691 6443 9958 0
-8442 3773 -7577 0
-445 -2846 -8892 0
-2046 8961 -7969 0
797 -5529 4780 0
281 4288 3568 0
-3498 1295 -2742 0
3330 7390 -2329 0
-4550 -3180 -3022 0
9687 -9359 1882 0
-8885 7141 -5829 0
-4349 5499 -9912 0
7986 2923 6342 0
9609 5608 -3990 0
-3383 -2098 -4750 0
4994 3007 7436 0
-6015 -3328 3426 0
-7601 1951 7863 0
9942 -2008 5935 0
5545 -3332 4569 0
-5589 6193 7553 0
7135 5315 7176 0
-9770 -4592 1201 0
4143 -3151 -2231 0
9825 -5717 1334 0
1977 -5700 4921 0
-7411 7944 9161 0
-8554 9464 2076 0
7171 5406 4147 0
-5223 8651 591 0
897 3935 -3680 0
8911 9595 6043 0
3805 -8 -6940 0
-7773 2353 5387 0
-3484 6608 -7243 0
7162 6217 -3884 0
4750 7055 -5089 0
7440 -816 557 0
2690 530 7920 0
-9874 -8223 -5612 0
9729 7505 601 0
5502 -4781 9900 0
-7737 -3790 -5814 0
-9813 255 -3124 0
-5654 4663 -7790 0
9873 -1076 -9133 0
1678 -9251 -3824 0
6609 595 6696 0
-4567 8277 -2081 0
6504 2578 6646 0
-8804 3163 2225 0
-3256 8743 6429 0
4327 5909 4632 0
6487 -7622 6816 0
7576 -3331 9832 0
-6352 704 7015 0
-8244 5625 6056 0
-6592 2642 4088 0
2206 -5137 339 0
-6363 99 843 0
-2317 -3135 3873 0
-8699 -2663 -3211 0
6342 -5656 -1286 0
-4853 7903 -4855 0
-3484 3007 4953 0
-5745 -1324 -4673 0
7461 6603 -7592 0
5388 -1972 3763 0
3174 4083 4755 0
7158 3447 6057 0
-9357 -3942 4653 0
-3323 -5700 -1924 0
341 -9585 -9928 0
6065 3941 3251 0
-1829 -5374 9860 0
-7555 1807 5208 0
-7495 7592 -9557 0
-9559 1508 9108 0
8366 -2401 -2970 0
604 9736 9627 0
-2183 -2449 -7789 0
2900 9420 -4175 0
2594 8299 5547 0
4198 7515 3480 0
8700 -5064 -478 0
2967 9492 9283 0
-1353 -8244 480 0
-8097 6386 7401 0
2208 8563 -1951 0
-4938 -9278 -6082 0
-8199 2789 -5177 0
-8827 -1749 8432 0
-2422 -8086 6782 0
-9282 8299 2356 0
-8176 5404 7538 0
-1382 -3166 9914 0
-6727 -9910 2561 0
1983 841 2801 0
-5444 7380 8048 0
1800 1430 -2329 0
-8966 9434 3281 0
-872 -8464 -5815 0
4203 -8775 5896 0
5378 -2492 3027 0
8495 6724 -2878 0
-3119 1172 -9072 0
92 1216 -5751 0
-3982 3183 -8562 0
-6605 8424 -3613 0
9653 2542 -8794 0
-9545 5933 -2492 0
9616 419 -7844 0
-3342 -2634 -2817 0
-95 413 5803 0
8271 4947 -1598 0
-1017 -8401 -5614 0
-6952 4753 -783 0
-6244 4966 6102 0
8315 5488 8372 0
-1643 -6979 -4658 0
849 9686 1735 0
749 -8359 6667 0
-6778 -3431 889 0
9169 -5330 4939 0
5557 -1903 8725 0
-7325 -4817 -6192 0
9379 4761 -1924 0
-7023 -452 4476 0
-8566 7414 -740 0
4494 2882 -9875 0
3029 -4529 2481 0
-3871 9617 -7356 0
2683 1049 -7737 0
-3624 -4698 -1725 0
-2553 639 -3044 0
-5742 2616 -5748 0
6016 6494 746 0
6198 -7749 -8344 0
-8762 -6979 3973 0
6618 -8317 8712 0
-7046 2541 -4294 0
5669 -1886 1824 0
5690 -7945 -571 0
5803 4316 2994 0
-1252 8919 -2389 0
824 813 -521 0
-4387 9300 -1145 0
4923 3037 6497 0
44 -3627 -3804 0
8904 -5988 3796 0
9723 -8296 3095 0
-9723 -6908 2071 0
-960 -4844 -3617 0
-3211 -400 -6470 0
-5941 -7152 -8790 0
8507 1751 4541 0
-5555 -1746 944 0
-1120 6772 -7234 0
5650 7157 -6906 0
-2953 4874 -2446 0
3161 -7581 2586 0
2842 486 -6629 0
6555 5270 5552 0
650 595 -5140 0
1362 -1107 4725 0
8078 -6800 1827 0
-3170 -3061 -4308 0
1074 3270 -3118 0
6498 3297 9246 0
-6915 -6314 8086 0
-8932 -9231 7059 0
-9715 3345 1383 0
-1827 -9010 -1784 0
-4935 3887 -742 0
7180 1317 7769 0
-7281 215 8920 0
8418 5909 9266 0
-9483 7596 -5767 0
-9261 -2239 -6671 0
-4521 4779 6442 0
3105 -2063 -4826 0
-7478 -4008 -8634 0
-77 7140 -9333 0
-5896 5672 5434 0
3407 6521 8532 0
-8232 8570 3694 0
5510 -2659 1701 0
-1808 -800 5626 0
4618 -6729 1321 0
-3633 5493 -4621 0
-1577 9954 6222 0
2356 3251 -8239 0
7004 7902 -1527 0
9172 8049 2535 0
5511 5668 -7541 0
-8065 -3345 -2346 0
-8927 -7349 7069 0
7872 5743 -6464 0
-3443 6284 9434 0
-9520 9188 9548 0
5871 9628 1819 0
9124 -2567 -9084 0
9846 1284 7151 0
-6053 -8525 3690 0
-7044 8232 -4998 0
2426 5134 8634 0
-2126 -7066 279 0
57 -3794 -5100 0
1798 -6146 -326 0
2008 7044 7333 0
-7421 -8863 -8200 0
-4015 -1943 -9908 0
-6475 -8612 -474 0
2619 -7200 -7051 0
6530 -4690 -7003 0
6286 -4339 -7900 0
9932 5164 -6271 0
6669 6104 -9083 0
5721 -7570 8223 0
-3179 5523 9996 0
5964 1850 5690 0
-3073 61 3759 0
1844 -3486 -7243 0
794 9995 4309 0
-329 7887 -6750 0
3975 8561 5104 0
-8078 -8184 -6533 0
7320 -2914 6119 0
-7888 9334 -9724 0
-8302 -1707 -7589 0
8755 2791 1285 0
5798 8415 4684 0
-8866 5625 -9701 0
9241 -6420 -1184 0
6859 -5666 721 0
1316 -1728 9691 0
9996 246 2837 0
8924 5009 936 0
-9357 -2846 3602 0
-4064 2373 9316 0
-1594 -7457 4587 0
4877 9874 -3450 0
-6368 2907 -3913 0
-883 607 -1415 0
7008 -2748 -1366 0
6576 5652 9618 0
-8163 -4122 -7311 0
-1882 -1327 4646 0
-9403 6844 311 0
-8424 7051 -7625 0
-4491 -7455 1561 0
-5902 318 -3494 0
-8389 3487 540 0
-8400 -5867 2769 0
4765 -4993 -9679 0
-7956 -1669 -1018 0
-4214 -339 2689 0
-1520 2570 9368 0
-1880 -5223 2717 0
5705 -675 4837 0
-5796 -577 -388 0
1673 -4474 8439 0
-317 -8688 -9205 0
3701 8447 4619 0
-6550 7207 -9597 0
-4917 -9751 -283 0
-5510 -1974 3940 0
-9707 1749 -6300 0
9303 -8141 -4436 0
-5937 -9016 8566 0
3305 8345 5246 0
-7997 5800 4136 0
9063 -8973 1728 0
-5341 -7263 -8917 0
519 8063 3694 0
103 1007 -2274 0
6180 1387 -2919 0
8753 7459 -235 0
3726 7752 -5501 0
1817 3843 -8079 0
3489 8973 4580 0
5238 1323 -4309 0
-6290 6228 -5570 0
1373 -7688 1397 0
5138 5650 5155 0
4836 6532 8411 0
-8842 -5498 -2850 0
4452 4509 -5563 0
1532 -193 2821 0
3516 8292 -6181 0
1048 -7289 -1460 0
9906 9246 -7925 0
-4289 7456 -5533 0
-3826 -802 2338 0
-9745 -4374 7174 0
1300 -8918 5556 0
4890 1429 -1217 0
-6226 190 3961 0
-1536 1810 -1424 0
7499 -6352 5614 0
-3385 -2206 -1639 0
843 -8596 505 0
-6427 -1807 -5787 0
8363 -3626 -9391 0
2127 -3239 -1553 0
-9267 -5766 -3262 0
9620 -9522 -9947 0
4196 9958 -8299 0
-933 -122 8408 0
-5432 -4080 7114 0
-2356 -277 4132 0
6943 -6535 -7994 0
-9836 -5536 -3660 0
-7602 9536 -7861 0
5663 -2624 441 0
-1667 -6253 2835 0
-265 -4085 5231 0
-3025 -2277 124 0
-3783 -8730 4435 0
-7552 8058 -3568 0
-5333 -9578 6465 0
7023 5480 -9711 0
202 8477 4604 0
-6901 -6900 -8657 0
-4541 -3379 -9603 0
-1927 9860 -4954 0
-6357 2937 -1496 0
9553 -2066 -7432 0
413 2668 -9188 0
3549 -201 -2402 0
-3703 -2713 5501 0
879 1226 -8335 0
8588 -8000 -3688 0
-3562 2696 -5417 0
-7337 5693 -2291 0
8780 2241 -1457 0
-4319 -1286 -9213 0
-395 2848 4256 0
-217 -9135 7429 0
-7010 -9488 4545 0
5957 -9204 -5216 0
8334 1427 7294 0
-5970 -88 -7453 0
46 -2778 -7061 0
-1123 6589 -1407 0
-7452 -3403 -6115 0
-9670 -9449 -9921 0
-7343 -6144 709 0
969 -3107 1019 0
1859 -1603 1622 0
949 1734 -2915 0
5855 -5582 -5185 0
-361 -5192 -9944 0
6154 1087 -2764 0
-3316 5835 -874 0
3032 -3874 -7380 0
8773 3918 -5246 0
-712 -4972 -5441 0
-7415 1076 -8772 0
8850 -7760 9207 0
-6063 -1401 7787 0
9918 5945 7411 0
-8787 -7727 1336 0
8506 3604 -1264 0
3064 2624 9798 0
785 -7494 -1313 0
5394 7525 -6860 0
-2828 -4687 -7642 0
7858 5843 -5972 0
7535 -1844 1357 0
-1011 2575 4346 0
-1526 -8700 -2054 0
-3126 -2722 9593 0
-7252 3104 -3501 0
-8504 9289 -2223 0
621 -7485 -113 0
7755 3860 6128 0
-6412 -1178 5703 0
-8916 2470 618 0
4645 -8304 9838 0
-8945 9195 -7567 0
-3440 -5377 7855 0
-1900 7210 3749 0
1456 5349 -6696 0
5591 -756 -3560 0
-4276 -9781 -9864 0
5648 8941 -2550 0
-7707 -827 -5825 0
2667 1639 -5884 0
3730 -3954 3946 0
-6476 5334 4580 0
-7326 7558 -2465 0
-3843 5025 -7507 0
2815 6664 -4607 0
-1743 -538 1658 0
9997 -3579 1009 0
8646 -4212 5183 0
7060 -232 5267 0
-2268 -5006 -7400 0
8 -5761 5785 0
4344 -6242 -9561 0
6969 3062 -904 0
3067 2139 -5911 0
257 -6958 6724 0
-3757 -5807 -3762 0
4863 -6316 163 0
-2314 1816 -8737 0
8202 -8373 3704 0
6541 -1343 -9847 0
-4173 8984 2587 0
-6394 8588 -3301 0
-4719 -2707 5725 0
1561 8560 7315 0
-5752 -8232 8367 0
597 -8278 9982 0
-9214 809 -2398 0
-8032 -7868 3956 0
5717 176 8326 0
5329 -8674 9310 0
8310 6809 9836 0
5527 428 7671 0
-8439 -3241 -7104 0
320 2035 -6019 0
-4954 6286 -255 0
-3307 9925 840 0
2668 -9533 2110 0
-9433 8904 6356 0
-6542 -5621 9080 0
8237 -7873 5180 0
5181 6412 -571 0
9310 6791 464 0
1143 -3390 -2820 0
-3753 8959 9360 0
-1187 8971 -8590 0
6251 2168 -7801 0
-6324 6868 3158 0
-8894 -2316 6278 0
-5009 4383 2123 0
-3158 6277 -258 0
4475 -1409 9105 0
8088 -2652 7447 0
-6412 -3071 3740 0
1294 -6082 267 0
-4315 8053 -3543 0
1699 8778 -5642 0
279 -3797 511 0
-3829 9996 2939 0
7284 7219 -2967 0
-3403 1007 -3004 0
-4480 8637 -1441 0
-7132 2329 2105 0
7611 6515 6444 0
5905 4084 5968 0
-2859 3207 756 0
6992 -1755 7361 0
2038 3343 -9613 0
-9083 1598 -9195 0
-7136 -1232 8703 0
8241 -9873 8111 0
3756 3136 -9233 0
467 -4963 1848 0
-7682 5492 -8244 0
-217 1285 8477 0
1719 -6619 -8547 0
-100 -5423 9697 0
-3935 -1726 -3595 0
-4761 -552 3555 0
-7960 -2328 9132 0
-5774 -7694 4926 0
610 2727 -2738 0
-9157 310 7130 0
-1141 3533 -3718 0
6168 -5636 97 0
1791 8399 2015 0
-7956 937 -6580 0
1256 -9946 9938 0
-2796 -1060 3142 0
5216 -9413 6729 0
5073 1875 -4187 0
4849 7063 3429 0
-2702 -696 1409 0
2849 8329 -1300 0
-9094 -1730 826 0
-8482 -5210 -6109 0
-518 4582 2799 0
-985 8900 -5952 0
-1937 -3837 -5821 0
-5260 -8982 110 0
6276 -4326 -6898 0
1746 6902 6518 0
53 -4714 9239 0
-8698 -8951 547 0
-5945 7025 3027 0
5831 -3647 1216 0
9245 8804 -4715 0
-8436 -2152 3160 0
8344 -6614 2763 0
-7427 5977 -2446 0
-7948 8324 -1506 0
-4601 -2204 7857 0
-3530 -695 7175 0
1905 -3649 -362 0
3286 4068 6281 0
-2900 6814 6636 0
3916 6404 -4351 0
1974 9312 -3366 0
1847 2572 8483 0
2384 -498 9839 0
-9110 1843 -2525 0
-4172 -6299 3617 0
5625 -6526 1685 0
3961 5099 6928 0
-82 6896 -3399 0
8016 -3435 9543 0
-9466 6369 1139 0
-6965 1807 -6851 0
-7376 -2057 6590 0
6080 5828 -1012 0
1620 -4346 2248 0
-4195 5640 2156 0
6990 3342 9388 0
7159 -1587 -6294 0
4848 9405 -1656 0
1901 -469 9809 0
-9096 -9313 -51 0
8098 7639 -3272 0
5334 5009 -3964 0
4839 7770 3363 0
-6514 8652 553 0
2679 -2789 -9531 0
-6644 -9269 8432 0
3258 3343 8981 0
9348 6210 7875 0
4677 1066 9395 0
5318 9231 7673 0
-2430 79 -3610 0
5273 4743 9972 0
-9281 4741 -7106 0
-3051 -7148 -9229 0
6547 1194 649 0
-3921 -2532 -1468 0
3553 -5573 -5449 0
6245 -1295 -8187 0
5448 5428 9335 0
-8769 -1014 5152 0
-4017 -8520 -7565 0
-2216 2569 3491 0
-6263 -8458 741 0
7297 6899 1738 0
2865 -6600 -2179 0
447 3094 -8241 0
3458 -2082 6231 0
4507 8574 -8855 0
-8506 8778 8126 0
6258 -5109 1608 0
5904 6971 3381 0
-1267 -8021 -5081 0
-8410 -5383 -216 0
1535 4641 -4112 0
-8955 8793 -183 0
-6010 6181 -2923 0
-9919 -5505 -4745 0
9670 -9829 6938 0
4872 -8515 -343 0
2687 -2075 -4790 0
9016 -30 8287 0
8675 4133 9647 0
6909 1792 -5344 0
-9838 -3100 2151 0
-8881 2054 2615 0
1698 -496 7647 0
3114 504 -6222 0
3088 -1845 5053 0
-1568 2782 2451 0
3345 -6684 6677 0
-2809 3187 9997 0
3037 -794 -6156 0
-8491 -6292 -2224 0
4248 -3373 2628 0
-7889 -7975 9029 0
6304 4578 -4234 0
2210 -4804 8703 0
-489 1566 -2493 0
201 -1723 -4786 0
-2818 7425 8697 0
-6377 9408 3571 0
9677 1652 -6254 0
2196 4534 -1652 0
-3778 4929 -7292 0
6148 -7326 -3786 0
-1229 -9366 -1580 0
-3346 9011 1651 0
6669 -2025 6959 0
-7707 8303 9949 0
7463 -5042 6163 0
798 -3172 970 0
8303 -807 -2859 0
1125 -6010 4072 0
-2500 4901 -3592 0
1416 8455 -6949 0
2625 5138 5082 0
1017 -800 -1004 0
-4528 -4282 -6735 0
5669 7234 128 0
4767 4126 -5524 0
-2566 -7055 -6422 0
8613 6141 6874 0
-3531 -5249 8460 0
-2825 -2135 -7692 0
-7066 3032 9501 0
-3058 3804 -4071 0
217 676 -6155 0
4349 -6060 -4932 0
-1502 9049 -787 0
-9152 7670 -8590 0
6795 8842 5580 0
6391 -6528 -2642 0
654 -8679 5538 0
1449 -419 6649 0
-9487 7131 283 0
4623 8314 7395 0
-6037 7626 -2474 0
-5747 6799 7120 0
456 -6926 7610 0
2484 -2929 800 0
-7145 3476 6649 0
8607 -211 -1782 0
-5564 -755 6914 0
8129 6710 -1876 0
5365 6093 2196 0
7866 -1813 1665 0
4733 -1133 -2927 0
-6448 2713 6844 0
4721 3393 9850 0
-5702 -9042 2867 0
5637 -5587 -368 0
1768 -7012 7100 0
-8703 7616 5512 0
1286 7925 -8719 0
-2578 5328 -5051 0
8985 6306 1752 0
2867 -2734 -470 0
9982 4841 -8881 0
-7673 8937 -5437 0
-3554 -9793 -5719 0
-7646 -6961 9965 0
-9444 6338 -2165 0
-8901 1676 7878 0
-7219 9904 1942 0
6556 635 -4742 0
6226 -3652 8912 0
-1486 433 4329 0
-4538 4492 4507 0
-7075 796 248 0
-4377 -5898 -8584 0
-1989 -6251 3735 0
-9460 -1761 -6040 0
-7876 -7198 982 0
-8563 -5384 6490 0
-2530 5205 -2351 0
-1464 -317 5462 0
-6444 -4585 3545 0
5021 1630 4547 0
8187 -736 -9392 0
-9209 -2440 -1901 0
2663 847 2761 0
4783 -310 155 0
-9923 -1919 -3473 0
8889 8192 5446 0
5793 6443 1474 0
-2956 112 2420 0
5174 8994 6229 0
-5418 -4872 4314 0
-8023 -5914 8626 0
-4892 4867 7976 0
5796 -6457 -6602 0
4430 5059 -3415 0
9561 1618 7792 0
6649 -8664 5362 0
2060 -4355 -2397 0
7388 -2959 -2851 0
-3517 745 3312 0
-9557 9590 -4858 0
1846 -118 7280 0
3069 5684 -3218 0
-9846 1344 -6820 0
501 -7011 -9003 0
8906 -6647 -9089 0
1485 7384 5655 0
-906 -4623 -4705 0
3268 1712 -3867 0
-1579 1272 6311 0
8990 -4602 9607 0
8456 3126 6344 0
-999 1613 9724 0
6571 -501 -2155 0
-1833 9110 -8899 0
-9422 8710 3870 0
-1463 5730 -9737 0
-7173 711 3205 0
-6055 6263 -8330 0
-2968 -8487 -4981 0
304 -7585 -2838 0
-1403 7670 9042 0
8185 7065 3851 0
9867 -8981 -6560 0
7454 6787 -3835 0
4430 1473 1536 0
-649 -2007 -6188 0
-5678 -5527 -1183 0
-3702 -310 5268 0
-6693 -3704 -4966 0
9580 172 -238 0
9191 7880 -3200 0
4863 -5622 -294 0
-3667 6987 6920 0
-7545 3498 1999 0
-7371 -2913 4603 0
-5950 9916 -4417 0
7521 -7210 -747 0
5187 3458 -3753 0
3571 3976 -1900 0
9029 9832 4817 0
-2283 -2590 2819 0
-1054 -727 778 0
1952 4723 145 0
-1166 -9939 2297 0
-1695 -6717 55 0
2576 -590 -6648 0
3604 -6887 -629 0
-7388 4499 -3451 0
1788 1763 -9158 0
7121 4311 5396 0
9577 876 -4890 0
9592 7171 918 0
4332 9350 -2022 0
-7530 -5183 143 0
6594 5735 8368 0
-7480 -7039 -6644 0
4682 5283 -6857 0
-9646 3454 -2284 0
9985 2303 9989 0
-5431 -5036 -6063 0
-2972 8370 -5917 0
6066 -7975 -2018 0
-4421 -3025 -686 0
-3630 298 -4684 0
-2085 -6454 -2165 0
-4856 6531 4504 0
-2445 -7469 7110 0
-4052 -7549 -9759 0
8565 6428 -2276 0
-8262 -4849 6909 0
8513 8240 5301 0
-411 8071 -1918 0
-4255 -8851 -9714 0
9469 5931 5402 0
-9104 4461 4075 0
-3178 2585 2383 0
6222 7285 -2223 0
1961 8628 -1964 0
8187 -1762 341 0
-6280 -9653 -1249 0
1276 -2634 3899 0
-5714 8871 1207 0
7463 -2671 5028 0
9023 5040 -7056 0
5053 2717 -4697 0
860 279 9134 0
-6748 -1728 -7789 0
-7986 318 3271 0
-1959 9720 -7817 0
-9746 4534 -6250 0
-5778 -6126 9689 0
-213 -3101 -1483 0
2068 -389 -9132 0
6813 5119 -4553 0
-2769 7802 8498 0
2474 5737 7568 0
7406 -2903 1233 0
-9803 -6794 6276 0
-2597 -4297 2140 0
-8660 -1977 8330 0
2589 6011 -4511 0
4388 -4011 3691 0
-7158 -4014 -9508 0
2657 -5957 -5147 0
5791 7812 6504 0
-7248 -861 -5086 0
-2272 758 3996 0
5101 -2449 1546 0
-6751 9954 -1394 0
-1048 -5209 217 0
-8735 1527 4618 0
-4684 7078 -8307 0
-1678 -8888 3739 0
-4386 5529 8686 0
-8052 3750 -6538 0
329 -7132 -5638 0
5037 -4781 -9406 0
2082 -8984 -6844 0
6664 -9880 5133 0
8346 -6945 8471 0
-5883 -1732 9787 0
-1082 4951 -14 0
6110 1189 6411 0
5803 2192 4756 0
-1283 -4912 -1736 0
-7734 -9768 8602 0
-8168 -4513 -281 0
-2758 -849 6697 0
7086 -2796 1265 0
4483 249 -3077 0
6228 6418 7215 0
-7445 -6679 -4289 0
-9730 2483 5022 0
4996 -861 2033 0
-1146 -8317 5826 0
245 -2673 -3659 0
-4043 -2743 4592 0
-717 -6938 -4716 0
-1517 -1839 -8066 0
-1624 -3734 3789 0
-4759 3456 -7337 0
853 3604 -3562 0
7857 7181 -6168 0
-6539 -7428 -3364 0
-6545 6284 -1584 0
1354 -8741 6951 0
-1873 2311 -8678 0
-2161 -6949 5778 0
-1819 -8345 1276 0
2332 8474 939 0
8490 -3301 -5610 0
-4129 -93 8708 0
5855 7920 -859 0
-3917 -120 -4479 0
2367 -643 -3767 0
194 -6540 2303 0
-8087 6931 9544 0
6544 1897 -2836 0
-7750 -1079 -5864 0
1636 5478 7937 0
-202 6534 -9584 0
3730 -3631 -1555 0
5328 -6161 2782 0
648 -1465 -7740 0
1105 -4136 8304 0
-2040 4978 898 0
-4838 4066 -7291 0
3186 -6947 -5760 0
7695 2488 -2443 0
-5096 6233 -286 0
-1966 693 -1244 0
-2593 3414 9528 0
7194 -8957 1262 0
-8444 -3686 1769 0
7857 4356 2100 0
2972 -6795 -1266 0
-5544 4897 -8220 0
6859 2431 -179 0
1925 -6417 1697 0
-711 -7715 3038 0
2626 -7275 7046 0
9313 -6271 -7895 0
8769 5985 -5540 0
6886 5494 -7518 0
-8556 427 8545 0
9415 -1560 4619 0
9549 -5886 9064 0
-5049 -1510 -1349 0
-4284 -4996 5167 0
-215 5238 1780 0
4507 -9540 -1262 0
-5838 344 -6929 0
3726 -5198 3253 0
9575 -9802 -9274 0
4210 -7197 -1947 0
2767 8218 1594 0
-2911 -5075 7182 0
9945 4150 -4026 0
-8231 703 -9775 0
5145 1912 -4480 0
-8660 -3602 4068 0
2782 -6987 -1959 0
7713 1547 5159 0
-2967 -9706 8341 0
-3627 -150 -1553 0
2020 -8818 -2597 0
5571 -9212 4583 0
-1689 6937 8287 0
-8737 1825 -9582 0
7783 1324 -6340 0
5606 7557 8949 0
5787 4222 3759 0
7076 5309 4627 0
5507 -210 2875 0
-9860 -6968 6338 0
1712 -5427 1913 0
3747 -9074 5737 0
-4306 1117 -7040 0
-5801 7043 -6620 0
-5613 -765 -2892 0
-6991 -2548 4199 0
-682 -6463 9465 0
-5259 -1820 1003 0
7024 -2902 -7262 0
1249 -5464 6491 0
1557 -8056 -2838 0
9009 8897 -8344 0
-9196 9373 -5337 0
7396 -3261 -4338 0
-4890 -3123 -9427 0
288 -8108 -7988 0
-3167 3734 9339 0
2957 -2912 8881 0
2291 -4402 7251 0
929 5480 -5909 0
-3973 -3987 9520 0
-9036 -8848 -5070 0
7773 -9592 -4965 0
8870 -6286 2063 0
5572 3269 9313 0
3034 8103 3781 0
-8529 9774 -8216 0
4336 -9399 -5489 0
5393 -8378 -620 0
3756 5048 -9762 0
5377 -6596 5387 0
-6376 -1962 4606 0
6919 1311 -9491 0
609 2297 6237 0
-10000 -9810 143 0
-7867 -9179 7497 0
-9078 -6378 8893 0
2780 -8117 3940 0
-2688 2380 9829 0
7091 -8748 -6326 0
-3968 320 6588 0
-5469 8031 3790 0
7742 -7351 -833 0
-6296 5111 9854 0
-8255 8835 -9230 0
6247 -3474 -5397 0
-2072 8037 1425 0
-7798 1100 -1278 0
-7520 -9921 -5246 0
9791 5387 -6514 0
-5065 -4488 -8914 0
3516 -9254 -3150 0
2345 -1034 1981 0
7651 -7984 -4753 0
7976 9390 -5230 0
1516 -4969 2710 0
386 -4409 496 0
4239 1020 -3295 0
-7743 3088 7478 0
-6409 -7608 -2605 0
-3539 -5039 2009 0
-259 8489 -2582 0
-8900 2115 9863 0
1576 -4692 -3572 0
3942 2681 4979 0
-9481 -1982 -6253 0
6933 -3911 -5294 0
6184 7286 -7758 0
2884 -3920 -9238 0
-9692 -7652 -3869 0
-909 340 4369 0
-1431 -3382 49 0
811 3299 5983 0
1225 -4167 -4376 0
5197 6523 -93 0
15 7622 -9913 0
8403 6415 6721 0
4464 3590 3241 0
5814 4484 -2700 0
3850 -491 -4144 0
5346 8138 6343 0
1318 -1654 -9177 0
-1286 -8391 -9367 0
-8475 -6393 -5582 0
-8157 8980 -1314 0
8507 3367 9962 0
-9022 -1846 -7285 0
4665 -8954 -4751 0
4507 8999 -4217 0
6125 8246 -692 0
-3659 7342 2016 0
-2655 6566 9059 0
5566 7736 5516 0
-7119 -2711 8849 0
-8658 -1673 -3363 0
2097 3088 -9201 0
-6818 -2526 -4534 0
5090 -1321 -198 0
-1088 5871 309 0
8722 1250 -5961 0
148 6686 3005 0
1292 -5829 6025 0
3611 1733 3539 0
-3297 6043 -7055 0
7206 -8725 -3700 0
-7929 9543 9168 0
5243 -2993 -9404 0
-2907 -6451 -1998 0
829 -4247 -4787 0
2427 900 -3449 0
-9809 -6569 270 0
-7282 2662 6417 0
9979 -7610 -6169 0
2453 8431 687 0
-1991 6824 234 0
-7015 9171 -6874 0
-7122 8698 8975 0
-1567 7182 -9849 0
-720 -4982 -6824 0
-658 2672 2645 0
482 6763 -7875 0
-2267 9914 2789 0
1237 135 9776 0
-2534 -1714 -7863 0
1093 -1618 1700 0
-9369 2389 -581 0
-192 -8948 -7366 0
922 -2322 -2151 0
-494 7975 3469 0
8374 -8366 6432 0
-189 6081 1216 0
7169 -4677 -6047 0
-5182 -253 2715 0
862 -9349 -8987 0
-929 -8834 6811 0
-4313 1175 -9147 0
-5155 -3676 -8532 0
4603 4174 9674 0
6013 -8099 -8581 0
3949 6005 -9975 0
-4191 6702 -678 0
2665 3756 -3764 0
4024 86 1239 0
-1790 -6463 -7382 0
6258 591 4618 0
-9287 -746 2634 0
-4975 -9174 -1312 0
-7352 -377 3343 0
3508 -2520 -3240 0
-8277 6002 -290 0
-3037 -481 5490 0
-2951 3057 -3683 0
7619 -8342 1249 0
-3845 6882 9345 0
-7082 4629 6654 0
9419 -5175 2528 0
593 9273 3542 0
1513 -1936 -7226 0
-5080 -1042 -9575 0
851 -646 3551 0
5989 -8853 -5784 0
9482 -329 -1001 0
8143 -5710 -3142 0
1827 -3377 1784 0
6644 -9432 2122 0
2276 1223 -9240 0
3743 5 -804 0
-6367 3434 -7582 0
-4762 -3104 -8107 0
-6199 9327 1866 0
2059 -6276 555 0
-8900 -5992 5835 0
-8218 -8385 6372 0
-4619 -6562 4789 0
-5374 1892 2124 0
-5201 -5189 -8616 0
7914 7695 3655 0
-1217 3579 -2560 0
-8823 5707 -8830 0
-187 7007 5392 0
-5390 -5519 -3087 0
-913 -7750 -5000 0
-9588 9488 7821 0
-7581 -9602 -8091 0
-2708 -7204 7440 0
-6524 8651 2244 0
-7803 -7619 -2468 0
4364 5434 -9794 0
-7132 70 -9709 0
6516 -8040 -5755 0
-7200 -8521 3787 0
-6087 7560 6773 0
6242 -9831 -5840 0
-586 -2430 -8646 0
-1404 4099 -900 0
-4385 4983 -4804 0
-2019 7863 6408 0
7824 -7 -4971 0
3285 -3461 -5450 0
4170 6321 3944 0
-9990 2167 9199 0
2427 -9396 3442 0
-9779 -6515 -9729 0
1878 2703 -8021 0
-9966 3238 176 0
-2506 -1125 -1363 0
2113 5398 -3655 0
3302 8177 6392 0
-1208 -1691 6014 0
4775 -4711 -2625 0
7154 2940 -3949 0
8426 -110 6493 0
-7532 1524 -9118 0
796 5503 -7564 0
-1868 -1746 8537 0
-9007 895 1752 0
3854 -6822 8886 0
4110 2503 -3263 0
9775 4455 -1148 0
9560 -7845 -4990 0
1719 -8727 842 0
-8512 3325 9937 0
-4144 -8380 1884 0
-6419 5983 -4576 0
4331 5990 8444 0
2026 5077 6334 0
-2500 7552 6978 0
2546 -8620 9251 0
-9981 -1778 -1201 0
5426 1072 9727 0
-4281 -7754 8948 0
4163 -573 7568 0
9227 -912 2441 0
6061 1519 -3812 0
-1261 -1205 904 0
-401 870 8020 0
2218 5379 -3119 0
-5907 -7704 -4848 0
2868 -463 4143 0
3540 -3453 6304 0
-4745 3991 -9286 0
5460 8840 2422 0
9833 -206 2207 0
538 -6874 -8698 0
1526 9403 -5273 0
-3037 -869 -2744 0
-2411 -9678 274 0
9171 -6871 -3818 0
-5651 3539 -1823 0
-6579 -1391 6732 0
7774 -8798 6956 0
-554 -5194 5160 0
1678 1418 1352 0
-7243 -4535 1527 0
-3583 -8131 3015 0
-5592 -8776 3327 0
-1237 -7376 4649 0
-4606 9668 -2560 0
-522 -2291 8710 0
-5482 -3349 -9611 0
-6072 3501 3309 0
-8005 1596 -5507 0
8876 2345 6536 0
7553 -1924 -4911 0
9474 7039 7900 0
4185 -843 -7068 0
2203 2232 -3631 0
4678 5359 -8548 0
-9251 -7902 -4080 0
5269 924 -2333 0
1082 2538 -9725 0
-5891 -7499 -4200 0
9028 2636 3335 0
2799 4570 649 0
-4734 -2064 -2734 0
9352 2789 5680 0
-6807 -1539 2687 0
9598 5268 -3507 0
4194 -4988 -9657 0
-6750 -7704 4631 0
-3263 -4503 2871 0
6311 8113 8630 0
-3378 1476 -4268 0
-75 4498 -1667 0
4455 -8501 -864 0
8619 -3795 -3185 0
-3811 -6763 -3127 0
9635 6343 -1839 0
-7167 4897 -4908 0
8887 -4954 -1322 0
475 -2278 645 0
-2477 -9243 7809 0
-7470 -1549 3106 0
8801 -5103 2196 0
-5103 9785 -2658 0
3087 -5925 4693 0
1695 -9804 -2675 0
1932 -5134 3512 0
-4632 -479 -8454 0
8091 7084 1713 0
-3457 4040 2010 0
-6357 4944 -3903 0
-6138 -643 -1996 0
-4942 -2943 6648 0
-3400 7904 1881 0
-6785 -4210 2391 0
-3754 -4874 8342 0
6743 -7879 3847 0
4823 4670 -5390 0
-4316 -7690 -9229 0
1571 -3754 -9622 0
3182 7326 9094 0
-9564 -6374 1199 0
-5075 -8524 9355 0
-763 -6813 -1926 0
-7765 -4385 -1322 0
3881 -316 -7013 0
-3745 -2655 1712 0
8061 -5487 -2585 0
-943 994 -6154 0
-6801 -3580 4246 0
7313 8975 -3330 0
9239 -9603 4893 0
-8581 -7015 -2514 0
9824 7803 6508 0
-7820 1219 7070 0
-6610 -8493 8033 0
4359 -5683 4126 0
5926 1904 -9705 0
8957 -550 -1241 0
-799 -4354 -158 0
2022 -7481 -9023 0
-263 -4447 -7068 0
8366 7296 192 0
-6034 -6326 3626 0
-9161 -4599 -3003 0
3384 -5896 -9886 0
-6323 3246 4208 0
1440 4856 -5104 0
3195 3376 6967 0
5652 6393 -4110 0
277 9411 -3447 0
-4412 -1102 -24 0
-3350 -3053 1585 0
4623 -8438 -6815 0
-1505 -9689 910 0
9197 -593 -6563 0
9621 9475 -9469 0
6797 8190 -8003 0
7816 6859 -5553 0
-1326 -6481 552 0
-1929 2241 8769 0
-9539 136 7807 0
-9460 -9095 -1330 0
1072 -67 -1775 0
3746 5124 -3001 0
8424 6253 -4219 0
1043 6872 -8886 0
-3431 -8062 -969 0
4709 8630 -2899 0
-6891 -3116 2006 0
-423 -3515 4402 0
2084 1933 2192 0
8507 -1118 -1093 0
-4376 9639 -9343 0
-2419 9068 -137 0
9120 -6900 -9260 0
7504 7443 -8834 0
-8221 6037 6474 0
86 3055 7329 0
-2343 -9406 -9089 0
9457 2521 -5437 0
-9122 -7967 -3970 0
7632 -434 1919 0
5590 -4799 -7311 0
-2974 9742 243 0
-3569 -2538 8191 0
-3112 -26 297 0
6628 -6175 7519 0
1603 -393 2640 0
-834 -3873 1549 0
-8127 1205 -4282 0
-3936 -8606 3883 0
9891 9143 1972 0
-2379 7373 -2455 0
-3130 -4767 -5079 0
-8857 7380 4836 0
9223 5315 -7537 0
4579 -5220 -4754 0
1892 5901 7865 0
8626 3063 9596 0
1942 -9619 3173 0
-2970 -3633 5987 0
-1369 -9451 -1900 0
-2586 7256 9146 0
-8039 1168 8200 0
-8473 -7416 -4475 0
-6196 3317 -1278 0
-1249 4837 -6265 0
-3872 -3641 -9022 0
-5285 333 9036 0
-7663 -1707 8130 0
1301 8228 -5133 0
-7804 -5259 -9641 0
3160 -3634 -5700 0
-4197 -5601 -1036 0
-9145 8742 6402 0
5884 -3000 2649 0
7381 2063 -1743 0
-8699 657 -1569 0
3805 -3456 4847 0
1515 -8489 2188 0
3520 -8046 4809 0
4034 -8094 7088 0
-6044 -6522 7757 0
-9361 9724 248 0
4538 6711 -8309 0
-4697 7609 -5334 0
6815 -9805 726 0
-8415 922 6110 0
2840 -8312 -565 0
1515 8096 -4887 0
1578 -5782 -7549 0
4855 6923 2210 0
-4374 -3497 9097 0
3838 -8419 -1824 0
3500 1705 4493 0
-3836 954 8822 0
2302 8669 -8988 0
1472 7795 1205 0
-3395 1553 -9326 0
1765 -4170 -4673 0
-1952 7389 -682 0
5104 -6986 3449 0
-423 -8067 8844 0
-8419 -5366 -2754 0
-7214 -9371 -5813 0
-5759 -9086 891 0
-1326 -2746 -4065 0
1386 -4047 2451 0
-8886 -1660 3038 0
1189 7028 561 0
8398 -7889 -3381 0
-8568 -8291 1093 0
-2405 -9435 5101 0
-3280 7935 -886 0
5564 6419 -6350 0
77 7909 -3832 0
2473 5450 -474 0
7653 -4815 -9962 0
-1229 1449 -2494 0
1377 4969 6113 0
6769 3134 -1611 0
300 5913 -9233 0
-130 -7429 1977 0
-3321 9833 709 0
5845 -3009 6158 0
-2975 -9446 -1320 0
-5478 4796 8194 0
2430 9653 -130 0
-5767 -3937 1883 0
-6468 -3896 -5229 0
-8916 5505 1288 0
104 -4161 6164 0
-8056 185 -5515 0
-5865 3583 -7362 0
-1756 -5765 -1051 0
4798 5282 6005 0
-9421 -551 -1635 0
-7113 423 -7962 0
-7127 675 -6267 0
3320 -465 2922 0
-5168 -7974 3628 0
9323 -3300 -3727 0
938 6756 -2679 0
-8636 976 -5811 0
-1030 -6970 2079 0
-8312 3862 3136 0
-7299 3466 -8515 0
524 5254 -5863 0
1687 -3249 1327 0
9433 9745 -7311 0
-5925 -2658 160 0
-4731 -8719 -8302 0
-9979 1568 1888 0
-5087 -886 8330 0
2908 -4360 1460 0
-6479 -2614 -1377 0
222 4326 5116 0
23 -4509 3096 0
7873 8039 8100 0
5352 1987 -3898 0
1796 -1803 9863 0
2736 3256 -4549 0
-7088 -3300 -5072 0
-9749 -5498 8232 0
649 -6226 6370 0
-613 -9100 2068 0
-4638 -4459 5314 0
4342 -4244 5483 0
3697 1351 -6086 0
-5533 -2211 -5539 0
3985 -7177 1034 0
-7439 -4181 -7253 0
9338 1715 -8328 0
2787 -3098 9790 0
-1000 716 656 0
821 -2978 -7191 0
-4055 -2711 -5812 0
8813 2249 -475 0
4669 3230 7479 0
-2122 6583 -3206 0
-8498 -4816 4006 0
-4771 -6433 -2529 0
1954 3230 -9667 0
6933 -8024 333 0
-5702 4446 -3371 0
8290 -8448 -4356 0
7118 -5712 8336 0
8878 -9496 1139 0
-638 -1887 6439 0
-3641 -5172 -7046 0
3354 7193 -4166 0
1384 2143 3129 0
-3491 -1164 2933 0
175 9883 8061 0
5342 -3074 9996 0
9140 -2068 -6076 0
-5251 5719 -9687 0
-5932 -8179 -9956 0
9582 -7262 1424 0
2203 901 2319 0
8880 -2344 -7687 0
7659 -1386 6598 0
-6162 7074 779 0
8195 1862 9835 0
-1517 -9102 -5009 0
-3752 -4567 -4236 0
-350 1671 -8734 0
850 -4099 5523 0
5432 2516 6585 0
294 3530 3768 0
6238 957 -1648 0
6421 -2427 1336 0
3065 585 -5260 0
930 -7036 -1751 0
-6989 -8881 -1818 0
-1921 -4392 8923 0
-5512 -7707 8718 0
-4236 7028 3634 0
8228 6767 2408 0
4596 5269 9232 0
-2713 7297 -9912 0
-9825 -6768 6502 0
-1755 -3064 447 0
-6377 6268 3734 0
7547 -5354 -3599 0
6731 -5699 3700 0
-6374 -5340 -1645 0
3045 -8033 -4233 0
-8711 -7495 8797 0
-9265 -6103 2328 0
-7054 -2278 -1116 0
4133 1774 381 0
3374 5482 2270 0
7132 1506 700 0
1467 8629 -5086 0
4897 -3777 -8364 0
-565 -1442 788 0
-8442 3809 6503 0
7283 5806 1028 0
8821 958 -2118 0
1349 516 9549 0
-1570 9622 -1703 0
-7603 1278 248 0
-7171 4919 5207 0
103 328 -7234 0
541 2282 6367 0
4448 -9006 5946 0
-7749 -9955 -4826 0
-9163 8959 3835 0
-2834 216 498 0
2349 8547 -7226 0
5390 -266 -9889 0
9379 1896 -249 0
-5278 4173 1136 0
-2283 -8480 5340 0
-4446 -8575 8666 0
504 8574 -4813 0
-9182 -5792 3251 0
-41 2345 -1424 0
7353 1664 2589 0
-469 2689 6632 0
-6344 -9221 384 0
-2712 3057 2066 0
1695 4589 -5967 0
-6763 2265 4564 0
-1669 781 -9743 0
-3629 1090 4890 0
-6501 3118 -7230 0
149 -4157 -5931 0
-1451 5912 6924 0
2580 2058 -652 0
-6830 7073 5557 0
4101 -7839 -1797 0
8528 2600 4155 0
9455 5088 8122 0
-9 9854 6723 0
-1404 -1392 -523 0
-5935 1938 5511 0
2471 -9845 7026 0
-8450 5953 -2719 0
-5193 -9382 -444 0
-392 5307 784 0
-8609 -7138 4111 0
1175 1404 -5186 0
3042 1986 7128 0
-2461 7736 9708 0
8292 2787 2076 0
8333 8616 -2482 0
-4346 40 -3078 0
-4236 -5245 9001 0
8010 1054 4419 0
4687 5866 7373 0
9774 -9346 -7144 0
9184 -6173 -1548 0
2800 4343 8824 0
-902 8870 4228 0
2749 -1388 -3269 0
-713 5221 -368 0
6476 -8179 -7126 0
3946 -8819 2175 0
8153 8782 195 0
2043 -6469 -635 0
-2786 -5442 3442 0
-239 -5321 7467 0
-4874 4866 5057 0
-6590 6610 9140 0
8940 -6952 8623 0
-4663 3040 -9679 0
7470 -8514 -8547 0
1254 -3378 3902 0
8209 -1062 -7517 0
2176 6748 -527 0
-8817 -6668 1772 0
4880 -1070 -5845 0
2790 1297 -48 0
2841 9658 -3900 0
8531 -389 5821 0
7828 -6248 6096 0
-2119 -8637 4821 0
7380 8281 6388 0
7985 -1597 -4152 0
2330 -2439 363 0
-3361 5622 3937 0
-9274 -102 -8953 0
-3554 8777 -3002 0
-8645 1854 1293 0
-5048 -8825 9081 0
6142 4964 -9122 0
-378 -9775 -3632 0
-1711 3318 -1359 0
-1276 -382 3439 0
-5295 3534 6459 0
5803 5535 -4828 0
-4439 -3015 7495 0
9345 3329 655 0
7761 4248 5348 0
-6 7677 -5523 0
2434 -8832 7707 0
-6552 8466 5093 0
-7879 2623 4888 0
-8287 -8597 -3654 0
-3092 2662 571 0
5016 -6700 -5310 0
6144 -5254 9802 0
-3620 -7023 -9306 0
2405 -7600 -5133 0
-2861 -2532 -7893 0
-8139 -1095 -6023 0
-9184 2037 2770 0
6349 -6270 9572 0
1241 8321 -4591 0
-1270 1863 6911 0
7327 1757 2054 0
9312 8858 8189 0
-2538 8 -7865 0
4713 -4447 764 0
-6006 5543 1785 0
6959 -9596 -1907 0
1463 -4435 -1147 0
4571 -9161 5408 0
-4827 207 6794 0
824 2321 -6233 0
1926 -8635 -8309 0
8855 6965 -2243 0
7482 -4996 -1271 0
-3859 -2583 -2765 0
9738 4253 5457 0
-383 7619 -5003 0
-1651 -2344 -3123 0
-406 -6267 -7729 0
-7047 -7030 8089 0
3293 -5896 1635 0
3410 2059 -4159 0
-9299 -1168 275 0
-5822 5342 7346 0
-1617 5118 -6231 0
-2277 7404 5527 0
-1435 2362 8471 0
-5489 -780 -5794 0
-6500 6339 1586 0
1136 6284 3595 0
-3832 1737 9956 0
-9010 5969 -9618 0
9881 -5230 -464 0
-2696 87 9531 0
-6671 3440 -1884 0
7067 -7502 -673 0
-5667 -644 8022 0
-6518 -165 -2144 0
3449 -5169 -1475 0
9983 5832 8643 0
8661 -7683 -2751 0
3179 5294 9539 0
5352 -3599 -6211 0
6679 -265 -8362 0
5150 -5107 -2196 0
-7782 -2708 -4953 0
-4574 -1996 -4378 0
-4567 6357 5698 0
4556 -8314 -9591 0
-2972 -8035 8401 0
-3549 -9121 2406 0
-3173 3837 9777 0
-9225 8781 -9242 0
4302 -9167 1647 0
-2732 -9943 8705 0
-6413 -8715 -1913 0
6729 -9649 -2947 0
-4061 4836 -9243 0
-759 2054 -6011 0
-8538 -4162 -3596 0
3063 -2431 5256 0
4108 7786 8021 0
2146 9202 -2367 0
7180 -4584 -6284 0
-3960 -6028 3415 0
-754 4909 7491 0
3268 -8227 2058 0
158 -4936 -8402 0
5481 -9958 2800 0
8990 -6421 1575 0
6562 -5371 -9922 0
-2869 -8981 1647 0
5197 4821 1038 0
-2968 -2871 -6559 0
7023 8947 -5544 0
-5151 9354 -8045 0
-5988 3234 3916 0
1964 2262 5568 0
309 -2687 713 0
-551 5343 8066 0
4093 -686 -8530 0
2817 8803 -4339 0
2616 4949 -2349 0
9526 -5797 843 0
7138 5216 -4524 0
2603 7507 -9672 0
-4477 -83 -6798 0
-627 -3775 -8812 0
281 -7100 -2873 0
5797 -6130 4486 0
-5129 1950 5678 0
1869 -4461 5656 0
-5504 967 -9589 0
-1545 -9010 1757 0
-3986 3089 -8172 0
-2910 -2005 6612 0
-3055 -7397 1475 0
4939 8520 -3780 0
-6162 -6989 3931 0
284 1293 -1323 0
-1806 2475 -8457 0
8474 -2597 6948 0
-7390 -2756 -7590 0
7477 1579 -7780 0
1679 -2845 -8158 0
7535 -5127 4585 0
-3273 -9075 -9534 0
140 -4036 -7935 0
5449 750 3998 0
3622 -2293 -6878 0
9920 2559 5434 0
4436 -5831 -7886 0
3803 7722 -3069 0
50 -4139 -7773 0
3739 2233 -2171 0
2194 5677 9304 0
7295 -7028 -3520 0
3054 -21 -1536 0
-2151 -5062 7747 0
4294 -6425 -5850 0
8253 6355 -5855 0
-3562 -8874 3538 0
-1468 9557 -81 0
3933 5348 -2175 0
9399 9903 -9128 0
-8013 -3482 -6171 0
-4621 6077 -9464 0
-5820 -375 2752 0
1919 2936 4826 0
-7382 3613 -8692 0
9326 1211 -6607 0
-2215 2621 -159 0
1916 -3171 3782 0
726 -5740 9277 0
-2933 4859 852 0
9858 8029 -2350 0
-7516 2921 2672 0
-340 7709 4681 0
-1611 -1691 9194 0
9955 -6331 -875 0
-5790 7970 1223 0
3659 -9303 8033 0
-9148 -7694 6146 0
927 -7481 1245 0
3256 -6241 5290 0
-249 1921 3748 0
3398 9580 -16 0
-1296 -2050 2614 0
6817 2451 -1868 0
-3103 3591 232 0
-4908 5327 9562 0
-2174 -2674 -8681 0
-307 -907 6615 0
-5778 5576 -9989 0
-6203 1462 6377 0
-363 8148 3398 0
6802 2059 -7842 0
8054 -501 2940 0
-6354 -6153 3844 0
-8689 2344 3884 0
2034 9392 5641 0
-5450 -6330 2588 0
-189 1719 -7676 0
-5246 2656 -6166 0
-7467 9068 4511 0
3777 -1474 -4384 0
-6367 -3006 9807 0
-5578 3496 5884 0
-3349 8542 2126 0
-2084 -9282 7533 0
7988 7992 -2680 0
1507 -4811 -7970 0
-3930 3828 -6407 0
-4567 4202 3222 0
6419 -9720 7921 0
-8852 3292 -2097 0
-4362 -6997 -345 0
-488 1000 -5269 0
9764 685 -1779 0
-5227 -6824 394 0
1610 -8218 824 0
4540 -1240 4988 0
3989 7972 4190 0
-8265 7899 3051 0
-682 -5975 -8446 0
-1406 -9049 -6867 0
-5888 9641 5686 0
7439 3200 6479 0
5864 9407 4599 0
-5185 5590 3946 0
-3034 -6084 -9803 0
-4916 2145 -8168 0
1203 7856 -575 0
687 204 4653 0
-9237 5583 -9121 0
5107 7453 1633 0
2201 -1040 -3369 0
6655 -8487 7638 0
-5053 -6250 -202 0
5752 -2363 2069 0
-1920 9864 1827 0
-581 1279 -6364 0
9300 4129 1522 0
-7692 1761 8246 0
5848 3350 2750 0
9206 -8889 -4433 0
-2250 7086 -9189 0
2838 -4779 -2204 0
7126 8464 2679 0
-1689 6389 -1235 0
-1065 -4515 4788 0
-7880 -9345 5658 0
-3829 1849 -1713 0
709 -4090 -6892 0
5218 5394 -7059 0
-7343 -6062 -5939 0
-1172 3679 -7048 0
5755 6897 -4083 0
4063 1479 7842 0
-3036 5778 3422 0
-2143 -3063 1251 0
-1223 3207 -299 0
-2986 2527 -8288 0
7467 -7670 -324 0
-5341 1694 -5770 0
7264 229 2112 0
-160 537 -9573 0
5529 688 -5535 0
3320 -2762 3393 0
-7354 -3224 -6395 0
-5064 -6114 -1010 0
-4437 6851 -8246 0
-8321 -5220 8279 0
9890 -2342 6989 0
-2288 8076 -5610 0
983 -3087 7632 0
9062 8372 -942 0
-9557 -9081 -6658 0
8466 7832 -2161 0
-12 7855 8109 0
3031 287 -2103 0
-9152 3434 1180 0
-8732 -8063 -3916 0
-3469 6245 -4311 0
-3166 2317 -9695 0
8999 -1363 -4795 0
2276 4139 -67 0
-5227 -8560 -8796 0
5083 -8871 6383 0
-218 -3787 3171 0
8509 815 -8023 0
2960 -8943 3008 0
2938 2984 6437 0
-6057 -6018 -7244 0
-3326 1306 6377 0
-4860 -2543 1995 0
-8060 -2053 9389 0
1332 -9939 3104 0
3916 5893 -6765 0
6648 -2594 597 0
-5214 4001 4560 0
-896 9059 7470 0
-5176 1691 2990 0
-4917 5164 9559 0
302 5434 -9485 0
-3955 -6695 2763 0
-5756 2238 4264 0
47 1243 -8513 0
3363 6583 -6455 0
2258 -4556 1364 0
4785 -1683 8701 0
-9276 8717 9928 0
3290 -5943 -2843 0
-3877 -9499 808 0
9171 3152 5244 0
1763 9740 -4784 0
-3760 9093 9028 0
3286 -5781 -9566 0
-4083 9553 -9040 0
1180 4919 -8924 0
225 -9519 716 0
3708 3381 5899 0
-3033 2639 -2425 0
-3728 -8341 -2802 0
654 2407 9499 0
-1913 -9877 -5818 0
9430 2959 9154 0
-7249 -699 2930 0
-848 3679 5449 0
-8189 -2470 -6798 0
1227 6014 6882 0
8337 -8852 2355 0
4382 7956 8892 0
-5034 -6234 5637 0
-6680 -7915 8583 0
-9754 508 1594 0
8883 4109 9309 0
3743 3624 -4520 0
-5326 6394 6432 0
-1541 -3127 -3850 0
-4881 1851 8368 0
-1464 5642 -4228 0
-7788 -9043 -3212 0
1648 1974 -3227 0
4119 -8825 6181 0
-5696 3012 -5124 0
5517 7685 9702 0
-8209 2948 7415 0
1958 -467 2748 0
-8054 -1912 555 0
4092 -9609 -2791 0
-5092 -522 3636 0
-4726 4524 -5388 0
9698 -6613 -593 0
-6426 -9302 19 0
3905 -4269 -7790 0
5941 9353 -2125 0
-7659 1606 -649 0
-895 1713 -3011 0
1669 3232 -3108 0
-8737 5564 7596 0
-4552 -8862 -3835 0
-7900 7812 1971 0
-7614 -8606 -28 0
-3880 6560 -4855 0
3924 -1428 -4344 0
9492 -2000 8958 0
6177 -2818 -7752 0
-209 1166 7433 0
-2559 -2290 -6182 0
8882 9878 487 0
1546 -2347 9452 0
-8644 -2853 -7800 0
-202 -8529 -5327 0
-4847 35 4995 0
5552 -364 -5991 0
-8241 9678 8644 0
-6587 7381 -6417 0
9077 2494 5682 0
-9046 5764 -5486 0
878 -7339 2032 0
2943 8138 -4997 0
776 -7517 4409 0
-304 3065 -9160 0
6570 9607 -3782 0
5831 -9386 -7089 0
-5993 -3405 -27 0
825 6625 1887 0
-1148 3244 25 0
3350 6638 -1617 0
-9581 4335 -8985 0
-4661 4012 2913 0
-6340 -8519 -1106 0
-3413 6777 -9977 0
943 -677 1565 0
-3472 -5946 -7734 0
-7805 -500 5930 0
639 -1139 -1695 0
-1891 7827 1395 0
392 8944 4682 0
-1816 7177 2110 0
7157 1132 -7548 0
-2546 1168 -9780 0
6604 -4703 6976 0
1383 -4034 -7656 0
9219 6511 -496 0
-8094 -1879 -6198 0
-4522 9702 8342 0
-5908 702 -3845 0
-9142 -7364 2078 0
7330 -153 -5084 0
7731 -5184 4094 0
-113 -5520 3557 0
-8020 3659 -4867 0
-7863 -7214 -5196 0
3119 -9518 -9909 0
-2744 3892 -8935 0
-7587 8699 -8993 0
8748 6498 7000 0
-8905 2972 4476 0
-8153 -2575 -1056 0
2400 2143 -7403 0
4055 -2308 2177 0
3748 -9782 -8640 0
-1097 -788 -3541 0
-8786 1846 -2416 0
-9410 -7104 -7132 0
-42 2733 5716 0
-3927 9512 6010 0
-4668 -3955 -8075 0
3359 -427 3413 0
-6984 -5354 -4949 0
-3344 6092 6225 0
-7918 -1957 -5493 0
7425 -782 8904 0
6972 -959 5002 0
-8797 7608 2830 0
-8200 6434 -75 0
-7226 -6139 -5873 0
-8657 -5043 -149 0
7995 -8245 7007 0
5726 7110 -2772 0
7593 425 -9347 0
8355 -7847 5577 0
-7921 -3264 -9522 0
3471 -6247 9229 0
4138 -8162 8961 0
6205 7185 -4630 0
672 7134 -4382 0
-8396 6995 -5753 0
4280 8531 4403 0
4636 2239 8690 0
610 -5516 866 0
5620 -7656 -6932 0
-9058 8167 -3605 0
-4262 -1220 4960 0
1738 1151 -1213 0
-6138 -937 -361 0
-1699 4719 1613 0
-26 -4515 -8159 0
-616 -1847 3483 0
5273 -3183 6780 0
-4314 1385 8033 0
8056 -7395 7863 0
7958 8620 -3854 0
3945 -8465 5718 0
781 7397 -3981 0
-9835 -12 2668 0
8207 -7399 -5996 0
-7744 -3420 5852 0
2328 -6535 346 0
7376 -3869 -6127 0
-5648 3605 -1254 0
2007 6919 -3983 0
-2282 -854 6620 0
-684 -7262 -8334 0
-2113 -2189 -6426 0
7193 2316 -6259 0
-7618 5355 9529 0
1446 1697 1481 0
12 1821 -1107 0
9707 -2458 3306 0
-9168 2445 5571 0
413 6553 -9699 0
9551 2984 2902 0
3102 1341 -4192 0
2635 -5267 5558 0
-2150 -9007 9341 0
98 -304 -8412 0
2291 -2540 2506 0
-9052 1757 1737 0
-4392 -7571 -7243 0
582 7294 -3806 0
4046 1171 6973 0
7091 7886 4917 0
9232 -2878 -4253 0
9927 -1569 -7801 0
-7235 7810 -9485 0
-6254 -3496 -315 0
-2912 -2528 -9336 0
-9106 -6493 556 0
676 6638 -8276 0
2310 -5981 -2500 0
9132 -5348 -2273 0
7219 3521 3911 0
-357 7253 2549 0
6873 615 -8483 0
2420 -5541 -5339 0
-3629 8537 -2825 0
8306 3668 5485 0
-1839 -9092 7890 0
1942 -4714 7287 0
-5246 -7502 -288 0
1860 7659 -8844 0
-789 -7551 -3721 0
-4089 397 -1817 0
-835 -6566 3902 0
-3886 4718 4476 0
-31 -2722 -9784 0
7109 -3300 7392 0
771 6142 -87 0
-497 8233 -7697 0
-4247 -4729 8408 0
1599 -3046 7091 0
-5718 -4322 2099 0
-3228 -7409 -6037 0
-560 8054 3289 0
2425 2644 9830 0
703 -2433 377 0
7678 -6361 -2421 0
-8534 8139 -6025 0
-6077 8820 3855 0
-6326 2714 9263 0
2055 -3848 721 0
-1375 9474 3672 0
-2226 -9991 -3676 0
-8749 1252 7195 0
2238 -6140 7414 0
-4216 -828 5391 0
-6866 -6088 -7582 0
-8097 -2738 -7758 0
9540 8722 9527 0
8984 3470 -9948 0
-9631 6600 -372 0
-2271 -6350 -6353 0
-201 -8526 -6937 0
-3394 7510 -1962 0
-7643 7678 1381 0
-2272 1640 -6157 0
8337 7209 -4796 0
8716 9718 8133 0
4189 -7615 3319 0
3836 1580 -1442 0
-7118 -3796 7425 0
685 2875 -2354 0
2040 6731 -9758 0
9212 -1883 -1365 0
529 -1372 3721 0
-4536 -3017 4632 0
-9168 5170 -9951 0
-6334 2985 7167 0
-762 -1630 -6329 0
-8606 6274 -35 0
7188 -774 -2477 0
2002 2399 -2717 0
-4941 1183 7003 0
2334 2572 3870 0
-6042 -3851 4555 0
9815 -6950 4956 0
337 8187 7173 0
5044 -506 985 0
-8536 7615 -1120 0
7410 2530 362 0
-6905 1686 3390 0
8360 2779 9975 0
8979 3497 -8879 0
8106 3850 3239 0
6872 -9703 -5590 0
1727 993 449 0
-6734 1237 -2783 0
-7193 -4357 6247 0
2035 -5663 594 0
-2639 5864 -8534 0
-3870 4094 -5322 0
-1647 -2278 -5421 0
5678 -7766 -7217 0
-1664 932 -2348 0
1443 3478 6530 0
8330 -8884 8235 0
8187 -9753 4848 0
-1906 3634 3773 0
-4180 -9527 -8122 0
7329 9407 2824 0
5617 1432 5241 0
9986 5217 4001 0
2014 6730 7133 0
9199 9300 -9390 0
8360 5021 414 0
4400 -2453 2123 0
9664 -6090 4018 0
-1721 -7407 -1211 0
-420 8821 1395 0
6967 4727 8938 0
-3483 3976 -1920 0
5688 8560 -2515 0
-2980 -7958 -5917 0
-9854 -2155 6004 0
1484 9210 -5361 0
2173 9312 -2302 0
5403 -2062 2619 0
1587 -1698 -5059 0
-1027 -1661 -5985 0
5278 -9199 9922 0
1531 1881 5108 0
-8312 -1115 6040 0
-5184 -9420 -4442 0
5776 3206 -2985 0
282 1875 7663 0
1829 -4732 7029 0
-1654 -312 -2695 0
-7480 9285 8186 0
-1406 -5673 9410 0
-6239 -8486 -2522 0
5030 7656 -9429 0
-6919 -9733 -5001 0
9230 6098 6246 0
-6128 6122 -6508 0
964 -8658 1026 0
-2214 4590 7258 0
-7522 4206 -9139 0
6181 5858 -5502 0
-4719 651 5097 0
-8258 -4471 -6546 0
-8339 1785 7130 0
1574 -8577 3999 0
-5362 -1946 -2893 0
8707 579 -2212 0
8263 7643 9650 0
2517 -6856 8808 0
-8925 -4669 815 0
-4629 -7173 8919 0
8582 9486 -2825 0
5006 -25 6940 0
-3943 9610 9834 0
-5801 -241 -8391 0
-8099 -6542 -4107 0
1567 9138 -2569 0
8376 -7116 -764 0
-3604 -2371 3940 0
-4277 -1898 -7386 0
7789 -7987 3842 0
-1224 5487 4064 0
6394 9485 -309 0
-4926 -6697 7286 0
-4994 -2828 4317 0
4051 8936 -1175 0
8942 5177 6419 0
3028 -9980 1461 0
-3448 7583 9553 0
-9356 -1877 -2789 0
-5839 5320 1899 0
-9981 1738 -443 0
7808 -9152 8646 0
4808 -3720 4406 0
8693 9395 6229 0
-6428 1104 2534 0
-3172 4476 -7888 0
-751 9139 7038 0
1408 -9138 -8760 0
-8950 3889 8218 0
6730 -11 -7058 0
-2715 8250 -9565 0
-5093 -4912 -1281 0
161 5951 4758 0
-3260 3520 4255 0
4359 8851 3789 0
-3417 1658 6919 0
4020 -1834 6533 0
2911 5575 2391 0
4458 6300 21 0
6408 667 -2617 0
8723 9939 3959 0
-7276 1232 1592 0
-2375 -5369 8332 0
-4285 -3572 -7313 0
-8551 9996 -1098 0
-6880 4550 1473 0
-289 -2548 -9381 0
4712 8266 -8953 0
2244 -4860 5141 0
9551 -273 -5678 0
-8523 -3732 -3010 0
-1651 -8466 -287 0
9236 366 1937 0
7974 -5034 5376 0
-5780 -7293 8849 0
1582 9107 -246 0
3442 1333 1249 0
-6267 6363 -3772 0
2966 6764 5259 0
1671 9016 -3316 0
-902 -2520 394 0
1708 -5376 -4310 0
-7532 -5928 4718 0
-5837 7697 -7940 0
-7434 -3911 7052 0
-1512 7466 6588 0
-6662 -5892 -4304 0
3076 3688 4253 0
6031 4608 -3237 0
5588 -4210 7031 0
7427 5102 -4964 0
2107 -9926 6720 0
-1033 7545 -8543 0
-4408 -4969 5424 0
625 -3650 2911 0
2513 -1424 8335 0
-4688 848 927 0
4599 265 64 0
3956 9394 -6981 0
3403 -6667 979 0
-5056 -7710 -1924 0
-9450 -9880 -2861 0
3744 -8693 9304 0
2541 -1619 -4110 0
2241 2676 4466 0
9731 -8599 -393 0
1982 -6600 -3013 0
8453 2015 6776 0
-9793 5004 6744 0
2686 -2245 -5144 0
9067 7651 2099 0
820 -4237 -6743 0
6462 -9668 2846 0
-411 -545 -8839 0
6139 -2532 -7914 0
-6124 -5341 -9426 0
4383 -5062 -4429 0
7001 -3696 5691 0
2304 -1149 9894 0
1213 4385 -4127 0
9698 -8887 -731 0
8177 4450 7564 0
-2326 -7702 -4370 0
44 -1691 1418 0
-8273 5370 -2297 0
7494 3725 -9182 0
2497 9981 -5542 0
-5645 7731 -2650 0
-2194 -5677 7261 0
8604 3947 -3339 0
3039 5591 8636 0
3385 6996 -5311 0
5430 -1591 -5559 0
-5405 4956 -7611 0
-4220 -6783 7097 0
-3220 -4214 1775 0
-2071 -8357 3774 0
1362 235 2954 0
650 3365 -2553 0
3096 -7225 6367 0
366 5966 -5476 0
-6045 -9407 -4509 0
-7884 -2003 8147 0
1523 8038 4220 0
5719 5819 -6212 0
-4844 2858 -2095 0
2933 8889 5379 0
859 -9758 4102 0
-3371 -3723 -9170 0
-2488 7216 -87 0
2526 709 -4850 0
7545 -5729 4481 0
-6355 -558 -7560 0
-6205 998 7533 0
-1208 6506 5144 0
-9489 -3335 8784 0
3637 -5916 -7604 0
-1393 -8070 -8300 0
-2103 -4835 9804 0
-3836 -4507 -29 0
-9176 -9594 -7979 0
-7420 -7559 -3069 0
-331 4173 -9249 0
2260 3531 -7812 0
2410 -3870 -5138 0
-4773 7951 2396 0
-579 -971 -7664 0
4528 2655 -6081 0
7438 -8240 3428 0
-9128 4219 6388 0
-8763 4811 -2009 0
3485 828 -4521 0
5338 -5096 -6387 0
9051 1537 9479 0
3352 -7903 -9543 0
-2359 -7726 485 0
-5986 -7754 8967 0
-1098 -6059 3975 0
-7295 -243 -6505 0
-488 -7712 -9801 0
-125 4301 -1296 0
8532 968 7094 0
4225 -3014 -5514 0
-2000 3840 -1737 0
-2774 7759 -1129 0
-7801 7324 -8898 0
7238 -1921 -2008 0
-8828 7439 -8973 0
5890 -5200 -9572 0
-5650 -6681 4558 0
9284 8365 -3332 0
-4260 -7399 -1056 0
8755 1725 1915 0
5373 480 8697 0
5757 5151 -2188 0
-3681 6050 -8636 0
4307 982 -3487 0
-3904 8325 3012 0
4103 8144 456 0
-8900 -4505 6700 0
-1355 733 -6986 0
-7236 -9475 1563 0
-6928 4147 -2808 0
4199 -8685 -7631 0
-409 -4588 7373 0
-9548 1211 -8629 0
4826 3288 6483 0
-4804 -8996 1179 0
2188 3191 -1972 0
5574 3601 2689 0
-6771 4257 -3404 0
-5754 3438 7727 0
984 226 -9135 0
-5624 -7795 6805 0
6814 -7631 3038 0
2423 8723 5515 0
-4854 7309 1662 0
2983 -7908 4580 0
8860 4500 -3292 0
5729 9955 9901 0
5555 -7450 389 0
-4888 9545 -517 0
5749 1936 -3567 0
-6665 7988 -3391 0
4976 -2746 -1905 0
-5055 1467 4202 0
6285 3095 1750 0
8259 9723 7510 0
2658 -6546 -4694 0
7414 6039 -9787 0
7688 -9722 -3192 0
3927 -3691 -566 0
-9395 2458 7762 0
9859 -7301 -5292 0
5647 2086 5202 0
4749 5858 8674 0
3653 -1981 -1247 0
3761 -3297 7209 0
-2195 8493 9751 0
7613 -6375 1070 0
-9969 -6763 -1441 0
7671 -4881 8309 0
784 -1981 3878 0
-3034 4547 213 0
9322 -247 5525 0
-1480 3909 -168 0
-6806 -4932 -9596 0
-2108 -1887 -9111 0
2909 -6188 1034 0
5717 -5207 3710 0
-7916 3575 -1885 0
2919 -8364 9012 0
-6607 655 -7240 0
7078 1542 -4462 0
-4643 6012 3991 0
-1047 -4008 8691 0
9238 9517 1595 0
3052 -6524 -1171 0
-7765 2387 2446 0
-4409 4712 -5500 0
-7193 2251 -9222 0
-1606 3323 9139 0
4242 8272 5550 0
-4011 -5794 -9682 0
-7735 -4053 -2349 0
3915 9355 8742 0
-5950 -5281 6682 0
2815 -1870 -3949 0
-274 2603 -4237 0
8137 -39 -817 0
6043 6806 -22 0
2398 -479 -1581 0
-5977 -3318 2398 0
4551 8986 7599 0
439 -7729 2169 0
1331 -4146 -1768 0
5032 7897 513 0
-6171 6173 3477 0
-8992 -6730 8331 0
-7374 -8919 8665 0
-2844 621 -8560 0
-825 2293 1653 0
-8103 -1278 -8354 0
7510 -6783 -1384 0
8733 6016 -4465 0
-4016 -7824 4163 0
5917 928 532 0
-65 5859 -1976 0
1004 7317 969 0
-2454 -2708 -2918 0
3895 -6242 7368 0
-1919 -7705 -2903 0
-1070 2270 -6094 0
4896 5691 -2988 0
8478 107 -9847 0
-9613 -8541 302 0
1787 9376 4774 0
8825 -9722 -6841 0
-6088 -5239 -3170 0
5097 -4993 -5096 0
-3851 -3396 -2311 0
-4629 1011 -8691 0
8370 9069 -3807 0
3496 -4613 6399 0
862 765 -3546 0
5968 -1642 -4506 0
5787 -717 7571 0
-3502 -1046 -845 0
-534 4376 -5285 0
195 3403 -5394 0
4189 5143 -1914 0
9627 -9206 -2032 0
5031 -2076 1910 0
-3683 1107 7385 0
-5720 -8182 -241 0
6676 7799 -6174 0
-9973 -5158 4500 0
2477 8644 -7152 0
-7679 5128 6329 0
-448 2416 -7730 0
4153 -8327 -9273 0
506 6200 4283 0
3707 -6406 7929 0
5140 -5813 2588 0
-2640 214 4579 0
1564 -3006 1040 0
5635 6554 -995 0
-1861 -299 3374 0
-8462 6501 3839 0
6546 2899 -8168 0
2572 -9504 -6197 0
-446 -7248 -5976 0
1008 9355 -9528 0
-3661 -4579 -1926 0
-5607 2567 -1736 0
4567 601 4796 0
-5748 1202 -6404 0
-642 -3187 8306 0
4179 -2829 6897 0
-6191 4181 2401 0
2900 -4990 -3664 0
-5987 -4872 6107 0
9771 -5004 -7371 0
-7461 -4514 4147 0
1631 4429 6726 0
5469 605 91 0
7561 -1067 -1429 0
-15 -9466 6473 0
-2569 9357 -4973 0
-2901 -4697 -1150 0
-1057 540 5250 0
-9994 4618 5040 0
1222 8757 -1314 0
6120 9775 1445 0
4983 1684 4009 0
-4016 5841 3140 0
-4027 6934 -6614 0
9968 -7530 8039 0
9674 -9683 -5638 0
-1337 -1926 6689 0
3169 -166 -8184 0
4858 -6352 8292 0
6695 -9531 5718 0
6430 5751 -2773 0
-9837 -6726 -7766 0
-8889 7770 -8352 0
-8521 1547 -4311 0
-1485 3589 716 0
7548 -488 4292 0
-9380 -2382 5608 0
2939 -3051 9154 0
-7388 5312 -2883 0
-7746 -7301 -5930 0
7881 7533 -2082 0
-7641 -5684 1111 0
616 6386 -5513 0
-7564 -7011 1022 0
2183 -8931 -2683 0
5060 -5534 -2601 0
4052 -9443 1755 0
999 -4258 -8835 0
7992 -8072 -6578 0
9972 -1248 -3755 0
6487 3819 8315 0
2384 -5306 -2883 0
-3045 3927 -2902 0
-4743 715 7378 0
5751 7502 -9806 0
2119 3642 6733 0
3560 -5470 8713 0
-2029 9695 7004 0
6582 -2777 -5152 0
-9055 -5738 7961 0
9791 3058 -2463 0
-7295 5873 -6005 0
8826 5754 -3381 0
5797 2972 7970 0
2764 -5393 7872 0
9229 9693 -6672 0
-3177 149 -6319 0
3393 -3188 7919 0
-6787 -4786 -3160 0
-7065 716 -8791 0
-2980 3870 4153 0
3294 9277 9079 0
262 635 9009 0
-9499 6406 -8796 0
-1354 -5400 3111 0
2206 -7198 1014 0
1300 -4384 -1054 0
4451 4109 -5421 0
3779 197 5600 0
1576 -2216 -7932 0
9427 -8255 3291 0
7728 9300 6888 0
-6271 -1895 1483 0
-6674 4279 7767 0
-1143 3369 -9044 0
-1648 7557 -1196 0
7688 -9065 -2526 0
6441 767 -3955 0
-807 4296 6907 0
-4572 -5336 -5850 0
-2841 4400 -2022 0
4622 -6333 -231 0
4107 2717 -2275 0
-5052 2308 9468 0
-3161 7115 3561 0
1457 -8450 -4546 0
-2266 -8397 -8694 0
351 4224 -331 0
2390 2842 6581 0
6996 -3716 -9150 0
-3900 -3479 -4280 0
5343 7239 347 0
-2260 -7373 -7015 0
-8207 515 -5554 0
9918 2000 -7921 0
5990 6545 -8433 0
-4266 -2844 -6046 0
3604 6546 1356 0
-5410 -6650 101 0
5656 -7937 1093 0
3032 -9263 2996 0
2254 2901 -9966 0
-5918 9863 1650 0
8511 -3198 -994 0
-7792 -8661 5305 0
-5774 9718 -510 0
6563 7895 -1554 0
3671 -3676 3622 0
-7778 9450 8882 0
-1499 3809 5426 0
8361 -8369 -2553 0
-7880 -7003 -6370 0
6924 8235 2393 0
-518 898 1533 0
-1025 2253 -5907 0
-2507 75 7463 0
3544 4731 -6475 0
7195 -8343 8428 0
-4416 -6073 -5718 0
-9822 -359 7549 0
-7591 -9205 -3192 0
696 -1317 9983 0
3457 -1790 -3432 0
80 8864 54 0
-107 2364 -1064 0
287 -1229 3676 0
9403 -7493 -314 0
4342 7426 -984 0
4973 -3318 -728 0
-2675 -5063 -7105 0
8216 -2832 -8087 0
-143 -3425 8923 0
-8464 9813 -2259 0
-9673 -7773 -3776 0
-3748 762 7287 0
-9863 -1164 -9799 0
4490 3132 3291 0
-6300 3350 4836 0
-8805 3329 7604 0
3550 8966 -8091 0
5932 -4678 -4261 0
-1159 -5695 3485 0
-5754 -4646 1768 0
4644 -1598 -6874 0
-3032 8164 -385 0
8336 9006 312 0
-9813 1566 3316 0
5245 4902 9310 0
-6876 -3369 -1875 0
-6632 2792 -8859 0
-6138 -943 1573 0
-4898 254 -5378 0
1507 3686 -67 0
-6040 9361 -4050 0
6409 4187 6805 0
3735 -1599 2121 0
3076 -6625 4687 0
-7520 4877 -8601 0
3216 -3000 -2384 0
-6758 6474 -94 0
-4312 -109 -4890 0
-4686 4589 -8970 0
4318 8454 4528 0
-3454 9234 9758 0
3347 -8652 -1162 0
9407 6128 -1189 0
6582 2425 2000 0
4203 -508 -8300 0
9811 5443 4032 0
-8924 8465 9628 0
-1534 4893 -5506 0
-5297 1070 1444 0
1426 2254 7837 0
-8378 7259 3069 0
1578 -5142 7988 0
2275 8611 -4879 0
-9889 -9250 -131 0
3557 -7463 1910 0
8906 -8807 -8508 0
-4597 -2513 -5667 0
-717 -1437 3504 0
1219 9057 -3063 0
-571 -7745 -3380 0
3612 5304 1315 0
620 -6191 4182 0
9340 -6247 -7998 0
-8523 -947 5173 0
-7266 -3059 2729 0
9594 1288 -3360 0
4626 8108 -2230 0
7997 1206 -1681 0
7306 -8200 -9530 0
-2803 -3797 2015 0
-1353 -6729 -3539 0
-7815 -7100 -3852 0
-5056 9431 2919 0
-2886 110 7395 0
1764 -2582 -1144 0
7932 -7398 -8910 0
3891 -8901 -7106 0
-7525 7998 9472 0
-4945 5422 7080 0
1046 -1084 -2982 0
5043 2879 564 0
4745 -8440 3398 0
8956 -218 -6196 0
-6483 -3678 8526 0
-7833 342 790 0
5947 1133 -8511 0
-1201 -276 -927 0
-5323 -6029 9752 0
-9843 -4551 3582 0
183 1535 8179 0
-2252 -9670 3647 0
9859 1450 -790 0
-4726 -9180 6703 0
-8690 -7565 -197 0
6691 -7534 8511 0
-9576 56 -250 0
8617 4406 3209 0
9065 7488 -4496 0
-3736 1443 8989 0
-4385 -6651 820 0
-4340 6249 7747 0
7561 -5108 -4387 0
-7290 6712 6692 0
-97 2156 3061 0
590 3800 3739 0
-4638 -5531 7070 0
792 -239 -9031 0
-2788 2207 3470 0
4109 2031 6764 0
-6796 -1143 8708 0
2493 -4234 -2777 0
-6977 5084 -5364 0
-674 -6963 -3761 0
8778 -750 7702 0
-4414 9308 -3933 0
1612 -524 -565 0
-4653 -5361 -8325 0
1969 -1474 -7340 0
3593 -4638 -4150 0
-3663 -8403 -224 0
8645 -49 1237 0
6564 -9087 -886 0
8976 -8880 -2079 0
1693 2173 -394 0
286 8856 248 0
4163 2450 -2815 0
9167 -9187 1369 0
-3440 -5846 1109 0
-2733 2355 -1694 0
-5094 -540 -787 0
-4193 6645 -9600 0
4013 -2424 -7527 0
-4647 -4316 -9700 0
-8197 -5557 5059 0
-4969 2087 -2822 0
-9698 8561 -6394 0
5105 1135 8265 0
-7723 -4654 -6511 0
6093 -651 9804 0
-3200 3163 -4434 0
2331 -2374 -7275 0
-967 -8094 9614 0
9450 -3928 6416 0
-7815 3011 -4274 0
4318 1262 1948 0
-2489 -9706 -315 0
-4592 6934 5716 0
-9044 -7337 7542 0
4308 -5857 9460 0
1841 8327 -340 0
7357 -1010 8575 0
-6984 -5987 -1376 0
-3172 -7931 -1627 0
-60 -2110 9486 0
1704 1480 9061 0
4917 2315 -2411 0
-7003 -6778 1404 0
-6232 7971 -3023 0
-2349 -9296 -4783 0
-1520 -7797 3445 0
7595 -3830 -2290 0
9 46 -2772 0
8286 9286 -6114 0
-7609 4656 3100 0
-2213 9975 9377 0
6114 6547 -4593 0
4057 -4889 -9219 0
-7509 7423 -227 0
-7798 -3394 -5638 0
-8568 -4047 -5133 0
-7144 -4713 -3889 0
9977 -6391 -147 0
3011 4 -3846 0
-6823 7653 5869 0
-7453 5874 6081 0
-8120 3628 -2812 0
1767 4598 2646 0
-4655 1515 8533 0
-4255 2636 6163 0
7522 8540 -2928 0
-402 -8416 4991 0
-3339 -9575 -4852 0
-848 -2819 -8176 0
-3468 -6658 -1214 0
843 9966 4400 0
1685 -7450 -9492 0
8198 7005 5375 0
-7925 8157 8096 0
-2389 -7116 3665 0
-5184 -8044 -5294 0
-9994 -6368 5989 0
630 4475 -9486 0
5654 -7529 -6545 0
757 6100 -5319 0
-8212 419 4083 0
-8169 -7539 -4276 0
-1659 -4454 -5016 0
-5147 -7860 1965 0
-2432 -317 -1777 0
5581 9639 7187 0
-4311 -2269 1118 0
6864 -9336 -347 0
-4518 2943 -127 0
-537 -8460 3198 0
-8819 4195 6015 0
3310 5459 -8982 0
8577 -570 -972 0
9363 -3426 -8870 0
2863 1357 -4384 0
3698 -4547 3377 0
8631 -827 9965 0
-3269 -7518 473 0
-3900 6878 -6321 0
-7679 -2225 -5069 0
-2738 -772 5884 0
5794 1902 502 0
-1642 8398 -4736 0
4971 7815 -7180 0
-4386 2804 3173 0
-9670 6869 -9758 0
4106 -8718 -6061 0
-1760 -788 -1227 0
5414 1816 6139 0
-713 5277 -8779 0
4315 8535 -2922 0
8757 7377 602 0
-3650 9225 -7055 0
5011 -8235 -1323 0
-5953 6438 2029 0
-338 8076 6751 0
1495 1084 -6079 0
379 -7226 -5245 0
-1278 8922 1997 0
-103 -5716 8627 0
468 5197 -7911 0
-2834 9280 4471 0
9451 5710 -7579 0
-4691 -7966 -2797 0
-3325 5653 -5104 0
4500 -2060 627 0
-4751 5477 3902 0
3851 -2362 -9911 0
4260 4439 -3990 0
-5889 -9816 -4979 0
-2576 -3773 4129 0
-2859 4096 -7006 0
-312 1514 8931 0
6200 7814 -190 0
-1924 -5839 8137 0
-9035 -3913 3419 0
1459 4288 6290 0
-5915 -9762 -929 0
-5806 -5201 5694 0
7613 -6848 9353 0
9476 -5654 8720 0
-7611 5343 -3656 0
6250 -1857 -4348 0
-9045 324 7318 0
7619 -8902 -1147 0
5326 322 -2942 0
6371 -5788 364 0
-5100 -705 -3246 0
-7000 5994 -5347 0
-7388 6984 -9535 0
-674 8247 4544 0
-3702 2002 7461 0
886 -7891 -3755 0
8433 -9100 3633 0
2758 8066 -5792 0
-2749 9957 1907 0
-2989 -2898 1316 0
-6670 7006 2191 0
-5027 3380 -3842 0
8559 2866 -7496 0
9270 8598 226 0
7413 -8085 -5170 0
3758 -8594 6516 0
-9217 3450 -4041 0
4015 -6667 -4573 0
-742 9887 -8064 0
4851 6863 489 0
3925 -8358 -8396 0
4599 -1747 -473 0
5385 -6582 5705 0
5871 3039 7381 0
-8074 7555 9741 0
518 2881 4675 0
-5460 5966 -7195 0
8749 1928 1197 0
-9636 -4450 -8922 0
-5238 2602 5910 0
6383 7488 7622 0
-3215 -9478 5236 0
7082 -5069 -4420 0
7604 -1604 -7858 0
7093 6084 -5248 0
1935 6111 -356 0
9804 3652 7616 0
487 -6533 -5738 0
-3096 7752 -781 0
5992 7541 7884 0
-4458 2418 3017 0
9058 2075 -6411 0
9054 9073 -2457 0
-7484 5515 -4120 0
5952 2667 5876 0
514 -9058 5633 0
-6610 -1144 1011 0
7687 5255 -4895 0
-4821 -6678 -6928 0
267 7231 6413 0
-9287 8594 4548 0
-9395 3512 -8432 0
-5750 -6055 2039 0
8258 3128 -1675 0
7339 4562 -7739 0
4524 -8253 1703 0
-7088 -6874 -7462 0
-8116 -6125 624 0
-1241 -1070 9094 0
-8542 7919 7995 0
181 -3410 -7562 0
-9283 3813 -2461 0
7338 -1209 760 0
978 2166 -3813 0
4487 2529 2869 0
6815 -9081 -2352 0
571 -2271 5893 0
619 2676 -239 0
7522 -9992 -1593 0
-1420 1233 5193 0
5324 679 -9309 0
-3157 1795 -8296 0
8807 3741 6374 0
-6516 4685 1905 0
-1415 -3264 1435 0
-3155 -379 -1595 0
2985 9345 9597 0
-7798 2644 3485 0
7570 8664 1851 0
-6451 3569 4455 0
-3678 -8859 -2451 0
606 -3847 -5308 0
-2326 -6787 7437 0
1749 -3992 5390 0
-5915 -5996 6496 0
5001 7739 -2900 0
4737 2795 -9952 0
5540 -9543 -9393 0
7711 7583 -6857 0
9615 -3393 7563 0
419 -5586 -2463 0
-5264 -1208 -9463 0
-458 2608 4464 0
8522 -7038 -2588 0
97 -144 5258 0
-5662 1076 -7632 0
2478 -9666 7911 0
9611 7367 2280 0
-6498 -9562 3862 0
-4457 53 -8241 0
2866 -4104 9745 0
-1561 3951 7725 0
-681 -7991 7554 0
3067 -2413 -78 0
-3507 6642 5140 0
6704 -6167 2683 0
6859 -8997 -4570 0
6049 7236 3890 0
-1025 2454 -5708 0
3946 -7577 -6649 0
-3189 -7081 5586 0
930 1438 -7821 0
2581 -3430 8418 0
-4261 3391 1899 0
2226 6883 5694 0
-7229 -4661 9265 0
681 -7244 2062 0
9445 -3405 3104 0
9072 6309 3081 0
6599 -8010 142 0
8300 2106 -8084 0
6588 9065 6051 0
-5970 5546 6475 0
9632 9265 -8221 0
4633 6896 2058 0
-8397 9774 1628 0
-7494 -3071 -1947 0
-5230 1748 -3176 0
-5146 -6344 -7566 0
-987 -1028 -82 0
-6549 5902 -5349 0
4654 -6948 7933 0
-6411 9750 -424 0
-7568 -9128 -7818 0
6270 -5701 6672 0
9550 -2801 2418 0
-962 -1982 -8570 0
-1688 -1218 6169 0
-4927 -3313 -2890 0
1598 8843 -6048 0
4294 2454 -744 0
3687 4020 -5006 0
-189 2458 -6193 0
206 3361 6703 0
-8919 3596 78 0
6294 2349 -4514 0
-2018 -6261 -6279 0
-8101 -8368 6646 0
-8850 4592 4262 0
7508 -905 -8108 0
8715 -5586 -1090 0
8941 1866 2747 0
-5412 -2067 9416 0
6481 2358 -9964 0
-8759 -6976 -7931 0
-8264 -9023 -5210 0
-1324 9307 -6654 0
4040 6401 -9176 0
3399 -893 -4241 0
-1555 6473 2886 0
-5559 -8741 -5365 0
6648 -8781 -3042 0
3663 -4591 3576 0
4688 -8528 525 0
-561 5178 -8508 0
-6109 -6764 -8129 0
-2534 -873 3553 0
2145 -1130 4780 0
8283 -6200 -4681 0
-5836 8072 -2469 0
398 -4085 -4437 0
1200 7394 -4266 0
-764 9476 -2296 0
8585 -4042 -8750 0
9737 -8 -3043 0
-5928 9668 3168 0
-7723 -2341 -8455 0
988 -4433 1100 0
9535 4540 2140 0
-3360 -1224 9478 0
7740 2653 222 0
-8068 -9768 -1352 0
-9669 7980 -8450 0
3798 3411 -841 0
5209 2465 -838 0
-936 6570 -4357 0
5736 7646 -5554 0
-5429 9094 1402 0
1669 1577 182 0
864 -5739 -5608 0
9143 8995 6242 0
-9046 -5624 -1103 0
7151 7428 -9123 0
7829 3305 -9018 0
-6238 -9106 462 0
-5073 7226 -6043 0
9129 -3085 -6735 0
-4870 341 2354 0
-7152 7221 9322 0
-9061 -6721 -8139 0
9103 6238 -4976 0
-8325 -8591 1735 0
94 7972 700 0
-5413 5577 8531 0
2785 9187 1409 0
5133 2094 2937 0
2695 -6615 -2093 0
409 1670 -6551 0
-696 4255 184 0
5873 -9407 7794 0
-5520 8595 5709 0
-8039 -6849 -2160 0
-6905 -1610 -9465 0
6248 -385 -319 0
-3528 -1924 3473 0
-3605 -7857 -3912 0
2885 8043 3749 0
7955 -5279 5163 0
-1224 -3679 1807 0
9089 -6449 7298 0
-1604 3508 -3750 0
2628 -2449 -8959 0
-1684 -1658 -9947 0
-8600 -5426 3893 0
2966 8843 6503 0
7023 605 -5884 0
-9506 -7729 4113 0
3718 -1082 -5591 0
7658 -1232 -6063 0
-589 7324 -1369 0
-7529 9539 8013 0
2846 1710 7741 0
-2291 -7892 9874 0
-7955 -3707 3686 0
-2843 5047 -6907 0
1970 -9290 -6227 0
7197 -1319 4212 0
3933 -1921 -9949 0
-5755 1404 1530 0
8890 4513 5942 0
4129 599 -4537 0
-4718 -609 6704 0
737 -9091 -3077 0
1983 7160 6903 0
-7575 -3410 8471 0
-8971 -5852 3425 0
9772 4403 3202 0
-2449 -625 -3911 0
-7196 -6853 7422 0
-152 -7884 9545 0
3732 1426 -666 0
9144 8244 -7838 0
8886 4170 4784 0
-2621 -5641 8747 0
7036 -3339 -431 0
4577 7143 6939 0
9625 -8702 5092 0
9126 6907 -7321 0
4803 -3792 5330 0
-1998 -6613 7081 0
4801 7832 5948 0
-1159 -1544 -6208 0
1191 6963 -2884 0
1822 -9639 6782 0
8707 7338 5922 0
1997 -8003 -6970 0
8226 6013 2472 0
-1350 1605 -6318 0
-5329 -9931 -8423 0
-7449 2742 -2073 0
-7181 4654 317 0
5910 2718 -222 0
6010 -2330 -9641 0
3165 6080 -4301 0
-5212 -1751 -2519 0
-1666 7899 1491 0
-9201 -5913 -9469 0
9164 7179 -8067 0
-9961 1112 7093 0
-816 2215 -8539 0
6837 839 8079 0
-4146 -3640 7314 0
-9707 7079 8554 0
-3749 2488 -6336 0
1869 -9062 7599 0
9332 3988 -2677 0
-4639 89 -8088 0
-2413 -4666 -4190 0
-9723 3938 -1420 0
2852 2684 -4775 0
5698 -5004 1690 0
997 -8875 -9729 0
7150 -9138 2432 0
2457 7307 -5624 0
8051 3289 -8580 0
4502 9184 -5140 0
7785 6243 -3738 0
-3252 73 3276 0
-8815 8014 4403 0
-2792 3718 -5665 0
4724 1934 -5453 0
8001 -6533 -1240 0
6599 5053 -5073 0
5078 -8578 -5975 0
-7332 -5575 -6118 0
-5884 -8065 -4190 0
9309 9135 -9664 0
-9609 -7637 1724 0
-2558 -6567 -4573 0
-2757 -1209 -7112 0
-8879 -3732 -5515 0
156 -6464 -4778 0
3252 -1452 7743 0
3189 -8692 5912 0
189 -9218 5090 0
655 9819 -3490 0
-7051 497 -3890 0
-8461 9660 -2255 0
-7737 7422 -2599 0
-3314 -5038 4227 0
-2384 7458 9339 0
5217 4087 2025 0
1779 5164 7657 0
-5149 1851 2064 0
-1664 6733 5295 0
2751 5319 5417 0
-4212 7755 -8758 0
3839 1225 -7114 0
-5110 -271 1920 0
1041 7878 7826 0
-1293 5239 -2930 0
-8950 465 -4748 0
-2511 -6071 5423 0
-3671 -692 -5628 0
-4507 -6571 -8834 0
7845 4115 -3479 0
-55 3573 -9504 0
77 -7327 -1915 0
-7019 685 5345 0
-3304 -6822 -6092 0
-8371 -5424 -9921 0
-2182 -5603 -6422 0
-9550 5365 3722 0
6209 3856 -6487 0
-1366 6275 9866 0
8484 7268 2450 0
7486 6935 4185 0
-1566 4078 6178 0
-2155 -2828 -9988 0
-432 -3438 3725 0
-4279 -5553 8274 0
6867 1141 -1031 0
3342 8578 9085 0
6302 3888 8562 0
3819 -4690 -2739 0
6535 -8903 8996 0
-5710 6525 1455 0
-4690 -5064 7008 0
4247 7897 7814 0
-3651 -5553 -4432 0
412 4737 5068 0
7053 -685 -5889 0
2721 -8625 5844 0
9252 -9019 9484 0
-9232 6928 -5668 0
3285 1882 2123 0
7116 1713 7131 0
-5313 -9627 7688 0
3841 1636 -577 0
7118 -9214 4554 0
9643 -4876 1566 0
8412 2073 5343 0
6809 1655 8840 0
-3015 -2840 -538 0
3438 7989 7874 0
-779 2572 3122 0
-9796 5606 -3861 0
-8976 3661 -8312 0
8806 -2453 9924 0
-8659 -8296 -328 0
-70 -54 -373 0
-4057 -4068 3146 0
-1822 -1102 2324 0
-3066 8875 -836 0
-8319 1347 -2239 0
2245 -6353 -2176 0
-5437 -6485 -6594 0
-6194 -8790 737 0
5568 -1451 -3620 0
-3689 9070 8693 0
-7794 -1820 7110 0
-9625 -9915 -3853 0
-3047 9407 -7164 0
-5444 2620 -5811 0
5210 -129 2652 0
7266 7169 4867 0
-1546 4549 -9607 0
-3963 -1127 8816 0
-1372 1802 -17 0
4087 7505 6064 0
-7659 -7560 204 0
-6117 -3222 936 0
-5460 5518 4804 0
-9228 -1160 6693 0
-133 8248 -517 0
-3387 7073 6255 0
4514 -3535 -5188 0
3227 8089 -1344 0
-664 -4301 1915 0
3179 7158 3532 0
-37 -2486 -9078 0
5244 -1107 -4552 0
9493 6157 8383 0
7455 30 3959 0
295 -5991 32 0
81 -9773 -4836 0
-7718 -2487 1420 0
704 -7794 -3844 0
1500 -5927 -5382 0
9936 2489 -1838 0
8663 1444 -7484 0
2468 -3889 -5827 0
7965 8807 -1788 0
3170 -4286 -5326 0
4389 3483 -6362 0
7568 2383 -7525 0
-6558 -5586 -8390 0
8612 -6457 4664 0
-1610 4992 5967 0
7666 -9554 -5199 0
5416 -4394 -6297 0
-5286 8511 9855 0
-7509 -8069 -8191 0
6042 3273 -4133 0
-5630 5704 -8553 0
5011 8786 5412 0
-5796 9469 5336 0
391 -1920 -51 0
6274 3532 1459 0
7836 -3591 -143 0
3069 6485 8194 0
-6492 -2999 -4138 0
-9439 9680 -1291 0
-1044 -6113 -742 0
-1611 -6993 1621 0
-7496 -4659 -4112 0
7591 3715 8634 0
7817 -3743 -748 0
9481 -9296 -5385 0
5854 4375 9573 0
-61 486 -3048 0
4443 510 3028 0
-5566 -149 -8048 0
-6388 5530 3323 0
-6360 5915 4575 0
5040 9320 953 0
4158 1260 8408 0
-7341 3620 6170 0
1133 6604 -8322 0
9366 -6766 -1476 0
-3467 4395 114 0
-4340 -7885 2764 0
-436 -2775 -5188 0
5471 -689 6510 0
8525 2555 2145 0
-9575 3707 -564 0
3967 -568 6891 0
8704 9835 -8992 0
-148 -4740 -2601 0
2424 -930 -8038 0
-3523 7889 5339 0
8795 -2605 1560 0
748 4184 -6748 0
868 575 -2209 0
-4239 -9798 -7347 0
1510 1769 5213 0
-4188 -9521 -5354 0
-9334 9858 -2579 0
5525 2290 5283 0
713 -6526 1366 0
8611 -3365 9784 0
9594 9703 -6422 0
-7062 -4272 9674 0
6220 -7348 3064 0
-3290 -7298 -4178 0
-7163 6736 -355 0
-9802 -8649 1026 0
800 -8345 7231 0
-5399 7358 6818 0
3311 -9082 -6171 0
-8515 1212 2348 0
5138 -855 4980 0
9356 -9161 -9360 0
663 -8102 -9181 0
-3922 5075 9667 0
41 1217 7282 0
-2606 5524 7101 0
248 -9567 -394 0
9878 818 -6460 0
-6494 -9012 -6485 0
7766 -6170 -341 0
-9924 9422 -1570 0
-6028 -7527 -2623 0
-2073 9237 9281 0
4237 8964 5345 0
-7183 -5991 -3424 0
3138 -2034 8235 0
-9473 2735 -5991 0
9065 8924 -3097 0
-1722 4290 -8098 0
-7477 4521 769 0
-5798 -8263 -7145 0
1950 6188 -5330 0
-1000 8841 -9097 0
7816 -5945 -8462 0
9668 1074 9105 0
-8785 -1344 -7831 0
470 -4591 -3096 0
-9236 -4423 -6173 0
-9032 7220 1122 0
3484 1664 4967 0
-5463 -325 4247 0
-7385 -8695 2572 0
-7050 -2718 9203 0
-6238 -4266 -3342 0
2431 -5493 -1517 0
8828 6273 8628 0
-3167 8071 6260 0
-9781 2551 -6447 0
6703 6406 -5929 0
-4144 -5077 -3626 0
9965 5295 -7744 0
-7823 6103 7032 0
-6700 4167 -7102 0
7115 5911 -8694 0
2172 -1566 -6028 0
4747 -4089 2760 0
5027 6740 1109 0
-8171 1906 -4217 0
1668 -7646 9343 0
772 -9644 -1880 0
-1870 -8154 -4632 0
-3816 -7612 9555 0
2945 -8569 5106 0
-4440 -8829 -1083 0
-9319 8276 -91 0
8627 -9127 463 0
1411 256 9893 0
9 -3042 -3992 0
-61 8720 -6723 0
-7461 1711 -7453 0
6267 -208 8822 0
-2829 5724 5958 0
1525 -2908 3635 0
5145 -7601 -8843 0
9500 -1091 -7526 0
4353 243 4110 0
9717 -8541 -6658 0
4066 -1490 3403 0
6757 -718 -7562 0
1501 7369 -9060 0
3983 -8326 -2256 0
-6940 2777 -3835 0
-4838 -1241 -2332 0
2241 4562 4705 0
-4554 682 -1717 0
-8316 8911 1941 0
3659 -3944 -8858 0
-1791 -1971 2178 0
969 9694 -3336 0
4723 -9731 -5713 0
-1424 -8947 7372 0
-5781 -7556 -9309 0
9310 3332 7654 0
-305 9733 2155 0
-7009 9037 3848 0
1977 4225 -2535 0
-2590 7191 -6624 0
-2734 -3317 -701 0
6926 7004 -5460 0
-8625 -4426 6273 0
7612 -4306 -8789 0
6610 -6424 4052 0
9134 6036 -8703 0
855 4347 -860 0
8177 -7312 -6315 0
2408 7937 6998 0
2619 -9413 8316 0
457 -4895 6612 0
-7698 -4111 6917 0
3918 7823 -2604 0
1599 -1030 4013 0
-8699 5832 -1859 0
2284 -8221 -9478 0
7293 2584 -6475 0
-4736 -4357 268 0
275 -7491 -6984 0
3797 -9600 9980 0
-7964 6423 -5799 0
7620 -8251 -6737 0
-5092 -1851 -3813 0
8221 -453 -1753 0
7592 -175 8321 0
-5321 -9857 5729 0
1817 -6432 -2211 0
5382 -3723 1838 0
3198 5567 6344 0
-5734 4906 -5273 0
-983 6535 -2648 0
4723 9896 2896 0
-6392 -6324 -7973 0
-1435 2125 9077 0
-4517 5138 307 0
-2882 4887 -7564 0
-4145 6279 -4076 0
-6653 -1318 -7127 0
3049 -8763 -8575 0
7221 9292 -8698 0
-8514 -4754 -5573 0
7365 6055 -9750 0
-7152 135 3273 0
-1299 1635 -6605 0
-4751 972 3847 0
-3024 -406 -5104 0
-9397 -2176 -3871 0
-8392 4123 7859 0
5543 -8261 -7523 0
-2557 5090 2739 0
-6864 -1987 7599 0
9419 -3417 3312 0
-7944 3522 -5082 0
7449 -4471 -7833 0
-4493 179 390 0
7778 -9666 1434 0
-1100 -1572 6543 0
542 8795 -9190 0
-4322 -7346 -178 0
-8089 5612 -8179 0
620 6433 -2008 0
2493 4977 -8796 0
-2002 -7947 2140 0
-8864 -1625 8157 0
-5608 2369 -6596 0
6475 6163 -5366 0
-131 -3616 5809 0
-5462 -5352 -1238 0
-2724 7484 -8726 0
-529 9400 8126 0
3634 4484 -4293 0
327 -3206 -6536 0
-8368 8333 -1555 0
1971 -920 -6355 0
8251 -940 9230 0
3473 4690 -9579 0
477 4340 -9216 0
-2953 -8899 1742 0
-3253 -8188 5804 0
3028 -1726 -8808 0
6370 -1303 -3769 0
-1540 -1536 -9771 0
-2679 -8518 -4256 0
-5471 -8447 8289 0
6798 6913 5450 0
-8314 -9640 -7306 0
-9475 8367 576 0
-7985 7120 6261 0
7233 -9071 9596 0
-2775 5028 9266 0
-1978 -7409 -3606 0
363 -5860 3126 0
4092 -9982 -3347 0
8077 8284 -5931 0
-461 -8444 -7056 0
2482 2302 3395 0
-9703 1773 3271 0
-9094 -1292 9823 0
7978 -7435 -105 0
3016 -2567 -6170 0
7149 -1581 4995 0
2829 -1715 1324 0
-4750 4922 6320 0
-1885 -6185 -1221 0
8634 1721 865 0
1918 -1212 9410 0
2713 -7758 7324 0
-6801 7082 -5405 0
-2784 8336 -2745 0
-2900 497 8919 0
-1899 3809 -7010 0
-5510 4331 -4609 0
5018 6414 -2958 0
1231 -3200 9316 0
-9680 7288 -4301 0
-3332 -3315 -1992 0
-3907 5900 9925 0
-9111 -5842 4077 0
-3320 2092 2193 0
9425 -2271 4522 0
5096 1042 -4764 0
-1442 7230 -2622 0
-8513 6416 1351 0
-9518 -1819 -4838 0
-5416 -3832 -2963 0
1497 -2800 5540 0
8713 4691 -7407 0
-6729 -6439 9189 0
4130 7223 -1543 0
-971 2502 9502 0
-6905 -1408 205 0
119 1663 -5714 0
-8437 2169 -344 0
8609 3918 -5680 0
9279 -6094 -3206 0
1124 -6644 8841 0
-3046 -5878 -5661 0
5948 -4749 5190 0
5588 1734 -8217 0
-1796 -4150 -9749 0
3985 -748 5582 0
-3320 1889 -32 0
-5474 5075 8395 0
-4134 -9440 -7749 0
9933 5130 7599 0
8496 -2689 4212 0
-6458 -9125 -3054 0
-7271 -3379 -3801 0
7193 -967 4958 0
-625 -1775 -8874 0
1542 -4541 2392 0
8924 -8746 6327 0
-6150 9756 7696 0
-5909 -1094 9369 0
-1892 9348 6023 0
9014 -243 -3472 0
6351 -2284 -6321 0
7282 -4347 8390 0
-7087 -8070 3803 0
9002 -3521 -1975 0
-484 -8850 3643 0
-5941 -9928 -8802 0
-5845 6715 1824 0
-6015 9645 -3758 0
-7711 3949 -5091 0
6570 7124 7345 0
-5111 -360 3090 0
4614 -5739 4117 0
-8698 5054 1236 0
7891 5011 -6129 0
-7059 -2963 9254 0
-4915 755 6194 0
6867 1738 177 0
-6513 -608 5856 0
-5254 -9526 -8845 0
-9665 6324 1889 0
8292 -3831 -8431 0
-7159 -8135 1107 0
-6322 3778 2067 0
-1041 -6329 6777 0
5996 7108 4151 0
-8976 9015 -5724 0
3194 3497 -817 0
7068 7284 -1596 0
6026 1480 -1459 0
-9143 -2366 -2507 0
8568 5304 9145 0
21 -1939 7145 0
-7405 -6142 3615 0
-4215 -3006 2653 0
-2905 -3187 -7495 0
7632 3503 8953 0
4354 -422 9163 0
5756 -9727 4959 0
4511 -1393 3226 0
-6817 8372 -8328 0
7715 -19 -9298 0
-4190 -8908 4546 0
7671 -7277 -1158 0
-3269 3655 -8499 0
9696 -3257 8574 0
-2606 6033 5877 0
-8339 3516 888 0
-8222 -817 -9551 0
-5771 9711 -6555 0
-8027 8000 -9421 0
7739 -9342 -6446 0
7822 3685 -102 0
763 5194 -36 0
-1703 2889 -7294 0
-9045 4229 1052 0
4500 -7400 2917 0
8093 -3302 1583 0
8986 -4043 -2192 0
2238 -5957 -7188 0
9246 -5504 -9329 0
7523 8480 71 0
8528 -932 -3978 0
-8474 9754 -8590 0
-7913 5255 3786 0
5106 2603 -7640 0
1466 -6796 6130 0
886 -7324 -6890 0
-3646 -8509 2739 0
-7026 -5985 61 0
-8568 5814 -2944 0
-8528 -3879 6898 0
-5248 -3409 -6430 0
-2160 48 -6850 0
-5570 -1111 -853 0
-7149 -187 358 0
1084 826 -2835 0
-9162 -847 1351 0
926 -4481 4390 0
9948 -2428 7246 0
695 -2843 4934 0
3213 1549 628 0
6835 8005 3966 0
4706 -760 -7213 0
-5118 4703 9061 0
-6153 -3505 7196 0
3576 3490 -4896 0
-4210 4765 7526 0
4994 8890 5950 0
-4537 -4667 -8838 0
-2558 1926 -5028 0
8922 -4909 -7935 0
-6561 -8286 -9627 0
9586 -2237 -4318 0
-1780 5602 -4537 0
9382 -199 1374 0
-1464 -541 -3921 0
7003 5980 -5150 0
2056 12 -903 0
-4273 8512 3095 0
9266 -7982 -4082 0
-9109 3294 3818 0
9539 -5764 -411 0
1434 6554 -7848 0
-1657 5840 7988 0
-9254 5376 5514 0
-3061 4446 -9497 0
2768 -2302 9908 0
255 -4642 -8209 0
9690 5189 9400 0
-9617 -9642 4009 0
2873 -384 134 0
6624 -3410 -9930 0
-4122 -1516 9854 0
6179 -2879 9738 0
2596 -9631 5881 0
-3 5866 9559 0
-2733 -1266 3542 0
-9016 -1547 133 0
-3787 -802 4698 0
-9146 -2663 -9898 0
-9659 -8837 9646 0
-6763 -6548 2854 0
9200 8058 8131 0
-2719 8573 3825 0
-9162 8685 -8939 0
-4999 9926 1019 0
-7478 6281 2102 0
5231 -4974 6859 0
617 -7962 -7822 0
1769 -7469 8207 0
-8121 5585 198 0
-2039 4151 -9719 0
297 8439 9179 0
-6423 -2003 -4351 0
3247 -8953 726 0
-9194 -3026 -876 0
-1880 -1942 9180 0
7940 3779 9779 0
-6303 2212 4597 0
924 -9501 -9440 0
9787 -1485 -7795 0
6772 -3074 -1674 0
-3001 -6698 5216 0
-7629 8978 -5010 0
-9774 990 -238 0
-898 997 -3225 0
-3124 1297 2868 0
7484 580 -3182 0
3338 -6955 -9815 0
-4982 8969 -2003 0
2006 7333 6745 0
2305 3693 -32 0
-48 -4853 1935 0
2621 -453 -877 0
-1857 -8192 -4168 0
-5982 -2590 -2057 0
-753 -2871 -4112 0
2128 -3512 8857 0
-8694 -6733 -4370 0
4044 -8876 -3211 0
4389 -1341 -6307 0
-5505 6645 7132 0
-2351 6571 -3300 0
-8214 -6203 2671 0
-3404 -1651 3167 0
-8452 -175 -7198 0
-5159 -80 -6952 0
-8312 1700 3402 0
2653 1337 -7143 0
3630 -3033 -9537 0
224 3447 -8680 0
6966 -8944 9437 0
3304 9984 4182 0
9373 -8494 3476 0
-2235 4552 -7976 0
-850 -5718 8979 0
-324 -2882 7042 0
-5284 1836 -4361 0
295 -6015 -473 0
6190 7292 -4009 0
1107 1569 -4981 0
679 -7733 -4327 0
-6378 -15 -6589 0
6768 -4806 -3705 0
2024 -1102 7396 0
-7373 -4804 -9467 0
-8580 7624 -6019 0
-264 5613 -4676 0
-8229 -8291 2788 0
-5368 3343 4138 0
2883 -2391 4375 0
-8114 7465 -1075 0
-6894 -5813 -4469 0
336 -4435 58 0
-3938 -7627 7861 0
5635 5332 3768 0
-3735 5526 -5062 0
-5700 -4977 -3574 0
2194 6368 -210 0
1115 5407 7377 0
3826 -459 -1712 0
-5458 8866 9661 0
-7024 -815 -2422 0
-1846 -8232 8358 0
-3759 -8744 -7702 0
5231 1527 -8365 0
7561 -5412 1369 0
9385 497 -8042 0
9424 -4473 -2000 0
7779 -1359 6186 0
-853 5993 2503 0
9200 -9479 5138 0
-3208 3986 4957 0
6370 -8521 6323 0
-1163 9012 4481 0
-148 -3919 -4418 0
5040 -1717 -6326 0
6777 5523 -1745 0
-9507 8243 -7931 0
8979 2186 1992 0
-9777 7538 5717 0
-6844 3621 -1113 0
6840 -4890 6275 0
4020 5906 -1307 0
4315 -278 5102 0
7383 1939 2 0
9909 1710 1428 0
6172 -1724 -4936 0
6213 4901 -4978 0
-5665 5364 3857 0
-9546 9785 -9194 0
-9779 2616 2588 0
-2546 2548 1417 0
-9784 -9252 9367 0
-7547 -6119 -1599 0
5438 9199 -2699 0
-217 5234 8805 0
3397 -7055 -1532 0
-4146 4456 6535 0
3887 7569 8634 0
-6676 9958 -4765 0
-3558 -1228 6908 0
-6553 9125 6515 0
2931 5529 -8710 0
-6433 7762 3059 0
9969 -2492 7055 0
-8022 569 1615 0
-4386 -7724 -2785 0
-3193 -6776 9241 0
-2833 146 -1428 0
-2574 -2029 -9380 0
-1912 9063 129 0
-4979 -9478 9468 0
3503 8098 8620 0
5548 5604 -2028 0
3146 -7912 1199 0
3361 3070 -3606 0
2870 -6966 -1845 0
-7536 -3817 6225 0
888 3169 -2762 0
-1346 3488 -3 0
2881 7310 -8599 0
-4970 8199 -492 0
-3771 6464 -6347 0
-4627 -1699 -8580 0
-7058 -1144 4942 0
5955 -4990 5831 0
6820 -6079 -5184 0
-2424 8152 -1203 0
963 -4744 -8640 0
-1175 -8637 -960 0
6079 -2415 -3998 0
-3242 -3622 -7601 0
5535 1803 -9356 0
-4432 -2702 6137 0
7569 9061 5442 0
2641 799 -7892 0
7358 -5097 4710 0
-829 -4933 4536 0
-8760 -7125 -4504 0
-751 5121 9198 0
3826 -4089 -8456 0
7309 -2782 -1432 0
2483 -2308 6869 0
-7650 -3931 9290 0
9189 -7995 9574 0
5647 -1376 -8611 0
3257 6126 -7727 0
-3373 1031 8465 0
-6647 -3080 -2339 0
-2893 5508 5155 0
-8734 -7883 -5704 0
8604 5537 7731 0
9799 -2254 -5866 0
2339 945 -4527 0
3679 493 8535 0
-9426 3220 7078 0
4151 -5509 8155 0
7982 3579 -8497 0
-4574 5459 3216 0
3226 -2750 -4922 0
2338 9318 -336 0
8373 -541 -8909 0
-1768 7320 -1360 0
-5942 -1001 -5993 0
-2880 -9965 -8339 0
3450 -465 5311 0
-2309 -7901 -2509 0
3325 -3645 8519 0
-9723 -1390 -2886 0
4155 9608 -6174 0
-8154 -1699 -8696 0
9446 3754 -2921 0
9912 3527 7115 0
-6117 -9564 2414 0
-2690 -2582 8503 0
-5362 -8100 7992 0
2039 -6194 -4358 0
2103 -9358 3651 0
9346 8882 -4861 0
-4288 3612 -4560 0
-518 -8423 -1496 0
-6577 1096 1193 0
-5141 5589 8448 0
-6794 7923 -1942 0
7426 6710 -2320 0
-138 6268 -9483 0
930 9242 3395 0
2412 -6240 4193 0
-5126 -8554 -8802 0
48 -820 9372 0
8725 4815 1947 0
3627 275 -9756 0
-5777 -376 -9018 0
1488 2227 762 0
4319 -8855 -6975 0
9392 -2 3278 0
-7245 6335 -5056 0
6090 -1594 955 0
-4532 -5647 3892 0
5392 7913 8747 0
533 -6911 -9674 0
3843 7134 3682 0
-1894 -838 6475 0
-6313 6947 5218 0
-6153 8912 3643 0
7400 8402 -7061 0
-7190 -8619 -7058 0
470 -4056 8336 0
8316 8943 -4973 0
-3799 -7932 -3394 0
-216 5437 -7825 0
-1792 67 4087 0
-2616 -8472 -1443 0
-8639 5374 6905 0
5688 -8388 -3808 0
5699 -1428 -3654 0
-8892 7255 8068 0
-2725 -4540 -1849 0
2620 268 -8183 0
7307 9169 7077 0
-5890 -1356 3763 0
9781 -1976 9649 0
-9930 -8472 -1603 0
4876 -619 4456 0
-6297 -7502 -9039 0
-1058 -9487 5905 0
-1240 -884 -2165 0
-5903 -8393 -4668 0
-8048 5687 -8552 0
-7556 963 5217 0
5692 4683 5253 0
-4451 1304 3332 0
-8423 8052 -7402 0
-8016 7798 -8493 0
7335 -3025 -2099 0
-1882 -736 -1955 0
8748 2287 -842 0
-2313 -4435 -4738 0
-988 -2162 -1816 0
2214 -1480 -8993 0
6404 -6296 -6317 0
7452 -3886 9032 0
643 6958 -9542 0
-7439 -2355 4349 0
-729 -4094 -4244 0
-460 -5117 -3940 0
2688 4835 6364 0
560 -9146 -5957 0
-6085 -4592 -5473 0
-2074 -8348 -547 0
-5544 9514 -9999 0
7748 -7513 8720 0
4998 6284 2779 0
8768 4109 -8642 0
5687 9753 -6694 0
618 -550 -3051 0
-8160 -7371 -1617 0
-4985 -504 -113 0
-1749 9795 8391 0
-4932 -7532 -6540 0
7457 -8006 3086 0
-4415 -7977 1969 0
-3388 -9084 -5995 0
6577 -1496 2921 0
1019 2275 -6333 0
-9123 -6546 2961 0
5196 9374 6839 0
-9005 6518 8964 0
-7077 2847 -1786 0
-5522 9362 1207 0
6774 -8122 -3231 0
-329 8273 -6600 0
4689 -1280 -1439 0
9812 1764 -9703 0
-8914 -9878 5824 0
9114 6542 -5630 0
-8914 -1645 -731 0
731 3259 5022 0
8364 -1713 7150 0
8626 -7046 1138 0
3716 -8996 -6269 0
-1422 2090 1411 0
-6126 -7765 2278 0
8217 -9386 2020 0
-6896 -2285 290 0
-1413 -1702 -4057 0
-895 7168 -767 0
1138 -5650 -3695 0
5958 8409 -8233 0
-768 2209 -6225 0
-8420 2422 -1061 0
2995 -6237 -8235 0
5269 8644 -3005 0
-2481 5646 -7372 0
4201 -3207 1191 0
-5405 9004 -3403 0
-6892 -1822 -8333 0
8114 -7602 -6394 0
-3520 -5650 6160 0
2014 6572 9748 0
-3591 576 -4789 0
-3297 6608 -3988 0
-1320 2277 6153 0
7902 6336 6697 0
8356 -2620 4676 0
9810 2685 3167 0
5323 -5275 -4906 0
4615 8547 9361 0
8162 -9410 4065 0
-5836 4395 8548 0
135 -5254 2559 0
-2347 -9442 -6206 0
2585 -806 3519 0
-3185 -455 -9452 0
4133 5131 2267 0
2477 7065 6525 0
-9500 4256 -5667 0
-2821 -8457 -5712 0
-9555 -6618 3087 0
-6411 442 5249 0
-4310 -8540 3819 0
-3275 7596 1206 0
-2973 -5247 3071 0
-709 4545 -8658 0
3380 5758 9984 0
-3759 -2096 -3920 0
-5809 -7699 -2953 0
7540 982 -337 0
-2479 767 -141 0
4503 5379 576 0
6022 1603 6542 0
-9581 -1347 396 0
-1155 -82 -8365 0
2321 -9285 1661 0
-3633 -1434 2767 0
1046 -5871 1145 0
6285 -3679 -6927 0
2492 8337 -6247 0
7343 -1230 -4037 0
-8128 5854 1160 0
-3770 -7336 -7826 0
5533 -9248 7656 0
-7268 6408 2800 0
5845 2376 7950 0
2885 -7531 -4602 0
4706 -8256 2394 0
289 -6245 -5017 0
-8984 -4957 3970 0
-8195 1152 5073 0
2273 127 -9398 0
1350 5734 -1839 0
-1914 -9356 2014 0
-3023 -6322 813 0
-3836 6819 -3482 0
8457 -2681 6491 0
-3228 1850 8121 0
-6343 -7062 -5000 0
-9034 -1569 8920 0
5460 -675 -8178 0
1330 -4556 -9167 0
9014 3492 3468 0
-9031 5880 6084 0
6217 -3259 8675 0
-8109 -3194 3684 0
3870 9441 -887 0
-4687 -1836 3982 0
-8477 -1437 -937 0
-4039 -5790 8439 0
-7810 -1642 -8760 0
-4388 7592 -5344 0
9739 -8998 -1465 0
1554 353 562 0
-9239 9058 -9087 0
-3183 -770 8625 0
8306 3972 -3607 0
6579 -854 9204 0
-4789 -7942 4935 0
-6882 4924 -4333 0
7596 -9572 -3401 0
-8405 -2404 1612 0
10000 -3154 572 0
6417 708 7675 0
1626 -1001 9193 0
-583 55 -7973 0
907 1383 749 0
1126 8830 -3499 0
-2835 -8353 3487 0
3257 -9574 4707 0
4564 -62 4405 0
-4082 -5450 -1274 0
-3437 6261 4137 0
9113 -6453 -6136 0
192 1515 -1799 0
1165 -1424 -1654 0
7557 -4968 -1083 0
-2688 8538 -7926 0
2045 4280 4669 0
-6769 -6551 6439 0
1105 3846 -9645 0
2202 -678 -8911 0
-5026 -9551 1201 0
133 -1895 -7738 0
5954 4114 9739 0
8476 -8996 5088 0
-9950 1987 759 0
-8086 -1424 7061 0
1578 61 7159 0
5052 3335 -9749 0
-722 -7362 3386 0
1539 -738 -7732 0
3010 -2257 -5027 0
7065 -4953 -1547 0
9485 8496 -2311 0
5185 -558 5704 0
1926 -5751 -1722 0
-2974 -1594 -211 0
-8491 4317 3686 0
442 9731 -4851 0
-9514 -1092 -1235 0
-5589 8168 50 0
-7364 1292 4892 0
-8640 -8763 -1035 0
9298 -2257 -6768 0
-2722 5207 7492 0
1421 -2115 -6429 0
507 1164 -7978 0
1444 -1772 4323 0
6733 -8726 2269 0
459 -7901 -3791 0
-5685 3591 6847 0
9849 -5342 -2492 0
898 -8671 2354 0
2168 -9834 -2049 0
-6500 -8497 3310 0
1592 -8955 -2638 0
-8442 -5948 8748 0
8539 -1840 8694 0
9909 -3674 -5131 0
7048 -1666 -3472 0
9498 -17 -6776 0
-1961 -7540 -5478 0
3782 3432 -8913 0
2652 2704 -869 0
4075 -3365 3014 0
-6705 -6873 7796 0
9744 -9843 8812 0
804 938 -9193 0
-4089 7663 1523 0
3988 -5085 -4160 0
409 -8288 7966 0
-7055 4361 -417 0
-3247 21 4549 0
4425 -9032 9023 0
-893 -9032 -424 0
-3122 3897 -4141 0
-4218 -7091 4242 0
-2162 3009 -7426 0
6751 -1785 645 0
-8338 -1369 -7063 0
3457 1507 8778 0
-7508 2974 6756 0
8695 -9905 -7745 0
-3987 8600 -3197 0
2173 -3305 -7050 0
1388 942 -127 0
-4889 -8261 9453 0
-9906 4387 -4224 0
-8309 514 -2688 0
2890 -3949 4351 0
4947 -9833 215 0
4653 -904 3559 0
4890 -3486 -2793 0
-7370 2612 6368 0
-8215 -2230 -5757 0
-9926 9091 -8263 0
2512 4797 -5318 0
-1610 4726 5285 0
-1224 -3625 -8833 0
-4881 2452 42 0
7596 8966 3926 0
-5278 -9987 -4358 0
-4363 3893 8034 0
8269 6708 935 0
8399 5207 871 0
9602 2199 -278 0
5265 -9175 3491 0
4271 -8620 1645 0
-5175 9896 2537 0
-6311 -3023 -3038 0
2841 -8309 7136 0
-8616 -8134 6838 0
-6783 3870 6335 0
9269 9514 8451 0
2814 2757 -6621 0
5045 -1384 4111 0
1783 -2680 -1888 0
5216 -8032 8445 0
128 4992 -2744 0
8916 -4160 -7228 0
-8767 6202 6679 0
5193 -2640 -8452 0
8332 -9134 -6879 0
-3835 5779 5221 0
-9540 9276 9342 0
675 9802 7351 0
9146 -3392 -5158 0
-759 -4189 -568 0
-9197 4530 3412 0
-2293 -7841 1444 0
-174 -8888 -7445 0
1695 5840 8879 0
6663 5049 -7656 0
-7378 9721 -9689 0
6537 5437 -1830 0
-2875 -6000 971 0
642 462 -2738 0
7096 -769 -1322 0
-7273 -6340 -3251 0
566 1910 -8747 0
-4461 9304 7160 0
115 914 -9217 0
319 -6610 -2745 0
1377 -3313 2326 0
9653 8998 -6391 0
9441 3772 341 0
-8005 9170 9753 0
8494 -5292 -2357 0
6666 -9867 3998 0
6473 -1603 -3283 0
-4942 9266 7770 0
-23 2459 5872 0
-3228 1554 -5178 0
6381 -3541 -1316 0
857 6319 626 0
-8537 1919 -4416 0
7351 -246 5053 0
-7646 -5011 -2454 0
-3093 239 -681 0
5303 -6389 4737 0
-6549 -6450 4465 0
1975 7970 817 0
1451 -606 6588 0
-1150 7239 -6134 0
-5467 -598 105 0
1819 9594 -1504 0
-395 4002 -6315 0
942 -1731 -6810 0
-9320 -5686 -3843 0
-7429 -8204 -1929 0
-3333 9636 -2415 0
7731 -8502 -6313 0
7996 -1185 -9916 0
604 8354 -5198 0
3839 -5403 6859 0
1565 -3208 -6835 0
6539 6647 2723 0
-3460 -3349 -3149 0
-4548 -4223 9184 0
2878 -9298 -1786 0
-2663 -5808 1026 0
895 -6032 494 0
3574 -5279 -3247 0
-1472 -3408 -819 0
2613 -2018 -769 0
506 5576 735 0
5516 7813 -2120 0
-6933 -1278 2279 0
-2249 -9047 7665 0
1193 9799 4363 0
5494 7987 2026 0
8407 6600 -7442 0
6978 6171 -2345 0
5279 -3031 -1359 0
-2449 -6081 6315 0
3466 7568 7453 0
-9892 -2127 6202 0
5852 1773 -5439 0
-7477 -6056 1814 0
-7638 6120 5350 0
3360 8995 -3470 0
-9070 2379 2226 0
9271 1529 -9820 0
-1562 3275 4385 0
-1576 6304 3467 0
-7860 1560 8720 0
3268 -9716 -3683 0
-2514 -9474 -6520 0
-5555 2541 -711 0
7463 5722 4975 0
-8459 -6445 -4891 0
9290 -6665 7563 0
8614 -7810 7428 0
-8618 8822 3126 0
-23 5912 941 0
-9796 -823 -273 0
-8291 2094 8835 0
-6076 -1162 7310 0
9306 3756 -7092 0
25 802 5126 0
2743 2665 -9755 0
-5499 -5406 -546 0
734 9315 -1202 0
-8284 1568 2015 0
-5713 -4906 2855 0
7170 -2051 7530 0
-1671 -7311 -9514 0
4152 1232 -7275 0
-8364 2558 4098 0
-8995 3188 6704 0
3487 3874 -7932 0
1356 9189 9982 0
3608 -4243 234 0
2788 -3348 -3538 0
9648 -6572 7201 0
-5876 5854 -5489 0
7124 -2631 7659 0
-841 3669 -6600 0
7021 6418 8709 0
8516 -2100 536 0
-4880 6373 -2907 0
7001 6843 6745 0
-7369 5182 -1153 0
3883 -6950 2132 0
1297 -1771 8866 0
7397 1739 7639 0
-8851 2623 665 0
7809 3093 8345 0
-8744 7616 -7974 0
2760 -9144 -7328 0
-8753 -8239 7392 0
2099 5339 6402 0
-6385 -8633 6549 0
4718 2887 -11 0
9009 1524 -559 0
-8871 -8136 8137 0
-7748 -5669 -9787 0
4239 6055 -871 0
7435 6762 723 0
1998 -140 9881 0
-245 4511 6335 0
4838 -9230 -7684 0
4658 -7248 1298 0
8679 1033 6983 0
5073 -9658 -3651 0
6839 -8006 3989 0
-1970 8324 -9487 0
-1699 -7515 439 0
-1169 1340 -3386 0
6735 6962 -7380 0
6108 -1995 -2434 0
5902 7752 498 0
7619 2244 -1636 0
-3697 6012 1330 0
-590 -9699 -4866 0
4967 -2944 -2868 0
7509 -8471 7019 0
2796 7863 2884 0
5776 9390 3190 0
5169 5269 8302 0
-6209 -1982 -1939 0
-5646 -4547 -8519 0
-4786 6681 9030 0
-9731 6196 3294 0
-6559 -4791 7394 0
-7816 -8635 6009 0
1533 8887 -956 0
6792 1986 -4166 0
1768 5235 -7553 0
9325 9094 -7222 0
-6093 -6184 -8087 0
8006 -228 892 0
6655 3035 -6177 0
8346 -8789 6136 0
5635 -6575 -5094 0
-436 6357 -79 0
9549 -7855 2197 0
-3880 -6540 4300 0
9759 5071 -906 0
-7105 -7474 4273 0
371 -3200 -142 0
-6265 -6831 -1447 0
-8958 -9767 8599 0
2891 5414 -3364 0
-5588 2399 7548 0
4916 -7 6245 0
-3221 9841 -4655 0
-8859 -8232 -3202 0
-9626 4154 4533 0
-7010 -738 8368 0
-4152 5833 8694 0
-3478 -8216 194 0
9023 8471 -7351 0
-5682 2012 9142 0
3996 2237 -7875 0
9941 -6536 9824 0
-2272 5477 4251 0
-248 8705 1613 0
9494 653 5527 0
-6259 3120 -8075 0
1904 3758 -8963 0
-7105 4118 819 0
7117 -5395 -2258 0
-2428 -774 -6919 0
1758 7118 -2997 0
5003 -9736 -2144 0
-3713 4117 -3114 0
-7768 -1992 -4212 0
9231 9571 4801 0
4593 7495 6433 0
-4275 -6247 -6507 0
-3730 -116 -4624 0
6727 -6374 4707 0
-3885 645 6841 0
-7764 -2632 -1009 0
3566 4314 -6519 0
-7070 1780 -7272 0
-719 6379 -6961 0
4931 168 8704 0
-7320 -2810 650 0
-8906 -3292 8339 0
1357 2908 6448 0
-9840 5109 8394 0
-801 -7609 4986 0
6044 5828 3648 0
122 7296 2791 0
2953 6884 -8323 0
8069 1741 8117 0
4427 -1741 5131 0
3224 -8561 -1657 0
-8040 -997 5630 0
-6813 5954 5551 0
-4995 2035 -3193 0
1114 -5685 6075 0
5117 8752 998 0
-5059 2032 7090 0
-7026 7412 -3781 0
2248 9136 3117 0
4175 -2735 -8894 0
-3391 -9006 -8512 0
7324 9953 7392 0
2071 -1754 3144 0
-1043 4021 9912 0
4147 -6075 692 0
-8478 3851 8194 0
9388 -6550 -3180 0
6609 8859 1261 0
279 9920 -5159 0
-3628 -9702 -9204 0
-762 -7242 7548 0
-1627 5544 8331 0
-4313 -181 -5622 0
4282 -4770 -8418 0
-9141 9562 9460 0
5006 -2805 2631 0
9486 6477 3331 0
3741 -1817 -5984 0
-9000 -2111 1111 0
-1451 -7208 -6874 0
-9486 6066 -7590 0
-1965 5286 -3694 0
2399 -4006 5007 0
-5634 -5654 3720 0
5507 -89 3076 0
9786 8982 -5656 0
4773 -3120 8776 0
9548 2534 4077 0
7062 -3139 5006 0
546 8895 -8784 0
9537 -5314 5465 0
-3275 6559 -1565 0
718 4275 -939 0
-5755 -2709 5432 0
-7079 -1148 6237 0
-2801 5182 -7063 0
9406 4685 -2072 0
-2265 -4257 -7878 0
9662 -3073 2553 0
-6154 6836 5839 0
-6388 -6672 9045 0
-669 1158 3835 0
-3586 74 2642 0
8359 -793 -72 0
-6781 -3747 -1749 0
-2531 6738 -2063 0
3860 6082 3615 0
-5835 4410 742 0
2465 -41 4543 0
-4716 -7204 -765 0
-949 361 1777 0
766 574 9022 0
4146 -9719 -9336 0
-3249 -9843 2472 0
-3172 5378 58 0
-3043 4214 939 0
-7722 1239 -7089 0
4877 -5952 2574 0
-1291 -9777 -5623 0
6684 -2838 3229 0
-1579 -4064 2768 0
6478 -8001 9944 0
-4434 -5588 -9513 0
-4060 -6685 -7681 0
5110 1902 1742 0
-1345 6549 7723 0
9270 -6131 -7945 0
9092 3735 -9989 0
-957 -3545 -7617 0
-3207 -3585 921 0
-6774 -5012 -5346 0
3270 -9860 5927 0
4023 -8740 9128 0
2243 1505 -408 0
-8439 -4112 4463 0
8976 8665 -5 0
-692 835 -2285 0
644 -2903 -9095 0
-3959 425 -1273 0
-6095 9903 4235 0
7936 3587 -1720 0
-1183 6167 7980 0
-7875 -8214 -2805 0
-8033 8474 -3162 0
8509 8154 3526 0
-6198 -7429 7982 0
-8389 1936 -7999 0
-4268 -1274 6089 0
7104 4751 4467 0
4163 -3869 8225 0
-2787 1911 2865 0
4195 -7591 -8435 0
-8548 -877 -8344 0
1348 -7245 7832 0
-2149 132 4219 0
4520 3845 2078 0
-8841 -4835 -9004 0
-4206 -5756 2572 0
1621 57 5141 0
2427 -3472 2201 0
4925 5465 5426 0
6280 -7364 165 0
-6389 -6690 5617 0
-8195 3375 -1747 0
-2635 7707 -4419 0
-5642 -9598 -4569 0
-1532 -8666 -1766 0
820 4652 -6026 0
8296 6075 9816 0
3924 -4589 4014 0
-2881 2031 -9968 0
-2494 -7553 -528 0
-9491 7346 -3026 0
7329 1604 -4924 0
614 -3571 -9632 0
-8123 -1332 2308 0
-7982 -9617 -7004 0
-5351 2840 -9110 0
2530 414 7746 0
-9231 -855 -4026 0
-6856 -318 -7622 0
2120 -7117 2857 0
7905 4132 9445 0
1095 -4641 4572 0
9395 -7471 7407 0
2884 6760 -204 0
9928 -8852 -3825 0
-3845 -4030 4289 0
475 181 -1450 0
360 3992 -6819 0
8884 -3175 -3224 0
-2529 -2790 1596 0
4273 -9068 -6073 0
8412 -935 -1514 0
2459 -5336 5062 0
8205 4520 -4435 0
-8952 58 -6555 0
-1680 1856 5975 0
-8297 -1111 -7772 0
413 -6548 -6311 0
-8133 6097 3778 0
-3617 -7451 6038 0
7989 48 -4776 0
-6200 -5247 2996 0
-3831 3082 -6496 0
9574 2036 5943 0
-3372 -3522 -1254 0
4378 -4678 2399 0
186 5311 -6957 0
4817 -7848 -4180 0
1738 -8241 346 0
-527 615 290 0
-6279 -413 5780 0
-503 -4445 -8156 0
2604 -1891 2382 0
4458 1961 -6006 0
9343 6853 5605 0
-8276 8516 2135 0
1816 5465 -5903 0
550 -3623 -399 0
-5919 -260 -5986 0
-5478 9827 -5844 0
7946 -1306 -4851 0
-9563 -6867 -6960 0
-4629 -1250 -4670 0
2652 9079 -4470 0
2558 8984 1616 0
8366 6405 7996 0
4114 -3605 -8543 0
-9445 -3068 9088 0
-2990 -5267 5027 0
3088 2483 2911 0
2599 8355 -7820 0
7384 872 624 0
-2798 -5002 -2464 0
8832 -8253 -1376 0
-9201 -8429 4361 0
-393 -8726 1103 0
-2104 -8304 4901 0
2311 -9030 -5333 0
8137 -3133 7931 0
-5606 7813 6156 0
6456 2254 -6155 0
-3182 3151 -2916 0
-6217 -2451 6887 0
-5818 -1575 4903 0
2283 3846 6713 0
2312 1084 -2099 0
-1706 -6649 -1342 0
2017 -2522 -2028 0
-671 1738 4220 0
-9315 -4334 6603 0
-6133 6667 8643 0
5313 6938 -8534 0
-8192 -1227 -4106 0
-7020 -1498 1046 0
-5825 6779 -3650 0
2802 9246 -2048 0
-9029 399 -5226 0
7710 -1584 -4614 0
-7650 2790 -2948 0
-5162 3139 9367 0
3384 766 -591 0
-2681 -634 1739 0
-3648 1660 -6235 0
6594 4120 -1012 0
-6365 -1843 -5690 0
1104 -883 -5840 0
-1707 -4236 -1430 0
18 -2668 -1990 0
8000 -8895 3171 0
-5002 5923 5691 0
6388 -1072 -7169 0
-4049 7952 -812 0
7944 1750 -7046 0
-6888 -9014 8990 0
5450 3129 9398 0
-8200 4835 9691 0
6967 1139 5831 0
4085 -6448 -2741 0
6886 -4182 -2476 0
-412 -2571 -7962 0
1696 1147 1360 0
6952 -9416 -1399 0
-6398 -3837 -879 0
-5657 5112 -9488 0
9387 -4298 -9007 0
-9472 6188 -1475 0
-3493 4296 5534 0
-7316 -862 -4635 0
-2130 -7647 -5504 0
1569 3378 -4906 0
7898 5357 -5374 0
8114 -5391 -8547 0
-9321 3243 -1101 0
2478 -9908 9930 0
8013 3397 5501 0
3878 8671 8277 0
-5365 2408 -5804 0
-671 2418 6122 0
2994 9245 8030 0
9877 -8139 6028 0
-5177 4117 7782 0
-6210 436 -4840 0
-7302 2193 -9876 0
-4773 -6899 -1628 0
4736 1251 -9536 0
-4250 -1720 -3803 0
-7562 -7147 -9521 0
-264 5165 8277 0
-9975 -151 8076 0
2575 9566 -1039 0
-4639 -3267 7778 0
5938 6738 -3033 0
-2864 -3472 -3030 0
-4335 -165 5634 0
-2898 5155 -3389 0
-9050 645 8663 0
-551 8175 3965 0
5647 -9796 9709 0
8859 1169 -7712 0
-9810 -9274 -2457 0
-6900 -9414 7603 0
-5680 -846 -477 0
9912 3246 -5870 0
-5510 -5447 -9118 0
6077 5116 6785 0
-2005 7354 -8123 0
-2636 1311 -8402 0
1572 9389 -9205 0
-584 -5289 1436 0
1971 9714 5823 0
8015 -221 -4836 0
-6895 4339 -1004 0
6234 -157 -5122 0
4428 1592 -6615 0
-9763 6227 -1368 0
-5685 239 1491 0
2574 6873 1697 0
5796 -5540 -3176 0
3495 -7694 -827 0
7165 -1830 -2465 0
7520 -5024 6967 0
-658 3472 5118 0
2226 4740 -1056 0
4735 3837 -353 0
-8507 517 9805 0
-8260 7448 4138 0
-588 5311 1537 0
1097 -2157 325 0
7971 8007 6701 0
99 3303 308 0
-5887 -7112 1339 0
-6932 -7736 6077 0
6813 -1691 9521 0
-8359 98 -8256 0
3458 8105 -6959 0
-1736 -7463 -2439 0
9005 9282 -7776 0
-827 -534 -4283 0
-9542 -775 5585 0
-5065 2517 54 0
3169 -8348 6468 0
-6776 7109 1901 0
-8478 7609 4732 0
162 -1200 9347 0
1354 -8553 -1648 0
-9876 7868 -9813 0
2497 -3491 2918 0
7846 5751 5603 0
5282 -2184 3740 0
-4928 4868 10000 0
5466 -2899 6842 0
-9092 9033 6830 0
-9440 -7158 -9420 0
-683 -6263 5304 0
-2460 -3467 -6343 0
671 8447 7172 0
-9819 -3415 -847 0
-9437 3723 -3117 0
7058 7666 -8979 0
200 -9690 6974 0
4915 -2376 -245 0
-365 5837 -8164 0
-1517 -1750 6884 0
-5748 50 2724 0
6222 2581 -4186 0
-9100 -1437 2994 0
3123 -9308 -8139 0
-3029 1835 7822 0
-5071 720 3248 0
-8319 6237 -5351 0
7033 -9152 8097 0
2971 -6242 4362 0
1330 5616 2332 0
1560 -7884 -8233 0
1576 -5499 -5632 0
843 2637 -1393 0
3756 -2909 9541 0
5497 -6853 4828 0
250 5508 2428 0
-9366 -3589 1255 0
-3446 -4604 -7799 0
-2509 3967 -1209 0
4324 8042 3462 0
5839 7009 -9104 0
-767 9551 6930 0
-6690 201 -753 0
-1647 71 8716 0
-6039 -3639 750 0
-8596 -1230 -4496 0
8026 -6765 -3489 0
587 9746 -1596 0
5648 370 -5367 0
-1089 -5502 -7790 0
-2349 2813 -1845 0
1038 3721 -4738 0
-1290 8533 -7053 0
7194 7220 -71 0
-1743 -333 -1553 0
1519 6188 -1546 0
-3373 9341 1760 0
-4505 -2808 -417 0
-7472 2009 -1866 0
708 -1090 7558 0
-4742 4814 -222 0
-8967 -9480 6510 0
1128 8498 -6724 0
8438 4883 -5339 0
-5628 -2715 -1946 0
2345 8535 -5819 0
-1611 -9594 -8469 0
2919 -7848 1248 0
-7261 -4662 -1829 0
-8048 -297 -5702 0
-5492 -4121 -8021 0
-9582 -6395 -8942 0
-2788 -3676 2599 0
7885 1923 1324 0
7763 -9115 -1854 0
-1748 7764 -2195 0
-964 6592 -672 0
-7498 7393 -5141 0
6475 1011 132 0
3830 7474 -7689 0
3429 -751 -3356 0
-5697 1174 -9919 0
2326 8664 9490 0
-3392 -9982 532 0
-4667 9190 -6784 0
-4751 -4077 237 0
-9612 6203 5371 0
-4553 -5759 9975 0
6914 5290 9620 0
1826 5131 -2875 0
-9908 -7457 -9314 0
4693 -7659 -3648 0
317 2812 7341 0
2689 -5724 4688 0
969 4801 6001 0
-9164 1891 -3480 0
6917 -1108 696 0
-7852 -7169 -4355 0
1252 8540 1511 0
4893 -5641 -925 0
9722 -3669 -7806 0
-19 145 3477 0
4521 -377 -6572 0
5044 848 2451 0
-2385 7727 7882 0
-8966 -3820 7351 0
-774 -6349 -3851 0
7726 4757 8449 0
9050 -3762 7725 0
3504 7885 -3886 0
-315 201 2755 0
724 2336 6170 0
1929 -6249 9415 0
4045 6321 3649 0
-1657 -3044 -707 0
-6660 -1267 6252 0
-9242 684 3403 0
2175 -35 5881 0
7876 6079 -526 0
-9040 6746 1517 0
-1847 -4192 -3915 0
-1597 7383 -2410 0
5140 6885 5679 0
7033 -3040 -7126 0
-7332 7803 -9728 0
-9038 938 5876 0
-1594 -2148 -3769 0
8364 4685 2526 0
-8038 -5467 4989 0
4676 -4673 8604 0
4404 8182 1041 0
-6479 5588 -7708 0
-9474 3938 -6362 0
6051 3562 1123 0
-2044 9370 -7781 0
4302 5058 698 0
-5228 -6847 -5526 0
-3126 -4129 1604 0
-8172 -9521 -6352 0
-7604 -4159 -7690 0
7293 -4327 -3992 0
3030 9045 2789 0
7713 -5363 4340 0
-473 1262 -6296 0
-9536 9321 -3921 0
6117 4367 9559 0
4132 7977 6563 0
-7583 534 -8400 0
-4012 9030 7829 0
9086 -9375 3177 0
-8964 8040 3320 0
6006 -2247 -47 0
8001 9279 3099 0
-7707 8786 -6275 0
7076 -4358 2747 0
8939 7993 -5883 0
-3950 4461 3770 0
51 -9403 -1568 0
1222 9380 8193 0
-7779 -8229 -1094 0
9311 8813 7191 0
-151 -2246 -2489 0
404 1548 -9372 0
2858 4879 -3003 0
1304 -2141 -232 0
-722 -6274 6790 0
2892 -9574 -2472 0
2436 -3102 -9633 0
-1107 -8362 -9525 0
-9132 4702 -478 0
-1761 -9786 7671 0
3253 8769 -3103 0
4647 -8953 8452 0
7146 -6317 -5962 0
-5589 2295 -7575 0
-5793 4222 9259 0
-6921 8959 65 0
-6751 -5919 1352 0
-5823 6629 2684 0
-1941 9871 -5275 0
1565 2396 -5405 0
3874 1152 -6590 0
4 5096 7046 0
-1201 -3035 -2415 0
3195 6195 4455 0
-9788 9944 3934 0
6877 -2122 -9923 0
-85 -645 -189 0
-6440 8451 -7817 0
1706 523 8622 0
660 -2471 -91 0
1894 8482 -3303 0
-7779 5349 -5363 0
-4837 2542 -667 0
-7130 -2958 3052 0
7108 -4003 -9922 0
3579 3505 4267 0
-6798 9409 -5878 0
-2930 3277 5481 0
-3742 -6101 4517 0
-5516 4989 -8065 0
6647 6010 2018 0
-1616 -3569 -8257 0
-8171 -1493 8746 0
8271 3350 -908 0
-9172 8788 8179 0
8804 4735 5142 0
1192 9558 6169 0
-2652 -1585 7719 0
-2256 4045 -7975 0
-7319 2721 6359 0
-3037 -303 7203 0
-8206 6542 -4629 0
245 9875 7861 0
293 -1757 1246 0
-3196 2447 -6901 0
3923 -1843 5795 0
2359 7389 2705 0
-5434 -8638 2470 0
-4720 -690 -1479 0
9766 -8376 -9546 0
-175 6823 -8268 0
-7024 1572 -657 0
-2792 8228 -3509 0
6606 -6963 3054 0
-2900 -9859 4096 0
-995 -4523 9520 0
-8023 1658 4165 0
5870 -6654 1112 0
8250 -604 6868 0
-6558 -3440 9197 0
-2678 2629 -7265 0
-3271 6214 6231 0
1986 7752 -1778 0
8546 -9577 -8384 0
-9987 -2830 -7439 0
3712 5683 6890 0
3518 7347 -6081 0
-2794 -6625 -9310 0
8449 9423 -2449 0
3458 -7709 5978 0
-9577 -4767 -1893 0
5219 -6353 -7649 0
-7864 1712 -6053 0
-2528 -5622 -1769 0
-6262 -872 5030 0
2231 8622 -6573 0
7372 8534 -8339 0
-9984 -8703 6071 0
7345 -4440 -3133 0
-7003 7726 184 0
-6307 4012 6223 0
215 -1652 9650 0
4606 -7826 923 0
822 7474 7552 0
-6237 -5768 -7594 0
801 5103 -4353 0
-8790 2468 966 0
9231 -5533 -2301 0
3912 -8274 9519 0
-2741 -4882 8054 0
6810 -1413 -4157 0
32 7296 2426 0
5226 2941 2548 0
-2546 9398 -7497 0
-7947 6344 -4914 0
5050 8378 -5954 0
-8122 9378 -5580 0
-21 97 3105 0
9114 -5797 9882 0
4362 8114 8945 0
5773 8926 1595 0
-5865 7311 -8716 0
7874 1710 -1515 0
-9872 -6105 -3006 0
-4786 7929 -298 0
-8266 1168 -128 0
1658 4102 1230 0
7571 -1739 -5446 0
6414 -3498 -3250 0
-5499 -1886 -3244 0
-5324 -2474 3634 0
-4338 -1782 -6091 0
3420 125 11 0
-843 -1788 -7913 0
6110 9959 -177 0
-5191 9752 8024 0
6068 -9146 -4560 0
2512 -7552 5416 0
5075 -3413 -4008 0
4884 -1129 9487 0
-2226 2266 -5510 0
2093 7092 217 0
6436 -7001 -4877 0
-7824 -3815 5792 0
-3128 3334 6372 0
-1651 687 -9621 0
-9904 -6847 -7347 0
-1572 -2137 6419 0
-6055 -6992 8130 0
-2590 4640 -2336 0
-3767 4215 5454 0
3808 6639 -2681 0
1760 5499 -7997 0
-3607 1736 -144 0
-8798 9875 -126 0
1728 2136 3426 0
-4434 -6933 4366 0
-9022 9469 25 0
6342 -5510 -6185 0
-6481 -6892 -3125 0
8930 -6299 4979 0
-3810 -4780 -4450 0
-5609 5236 7326 0
265 3645 3986 0
-9235 -179 7944 0
-5717 1929 -5067 0
-6279 -9492 -5968 0
5456 -7431 4243 0
6477 -6260 8460 0
3413 -998 -923 0
-5245 -3912 9050 0
-2739 5329 8966 0
-5171 -1278 41 0
8439 9798 4996 0
-127 -4480 -9644 0
391 973 -7902 0
2607 -6926 7351 0
-3565 9122 3620 0
2976 -7602 -7820 0
-3694 2807 -191 0
9907 -7581 -763 0
8311 4474 -7271 0
3155 7748 529 0
-4369 6370 4913 0
324 -2394 8627 0
-6264 -8147 5017 0
1175 4211 3247 0
5022 8928 -5988 0
-279 9695 -7207 0
1306 -6143 9502 0
-4817 -3506 -9054 0
4080 -6427 -6997 0
-4519 -4397 5597 0
-6368 -4102 -2652 0
-8310 -8081 7041 0
-3236 -4158 1885 0
2289 -1340 -248 0
-1136 3407 7542 0
4141 9051 -7687 0
4952 -7070 -9341 0
7690 -2253 7771 0
3615 3417 -5635 0
-6278 1051 4144 0
6599 7144 -6163 0
995 6980 3256 0
-4005 -3994 -904 0
-8953 2078 2602 0
-5731 6213 9799 0
2165 6744 683 0
1679 -955 4397 0
2512 -7304 4301 0
2247 -1118 2790 0
-1222 -5398 8776 0
-7448 -8421 1725 0
6549 4604 8023 0
-4533 -2557 -9063 0
2216 1823 8023 0
9572 -529 -623 0
9630 -9792 -1654 0
7581 -2678 -3082 0
2376 7867 4665 0
8614 532 7945 0
-9910 -9244 869 0
-3075 5842 -233 0
2623 -9507 2052 0
-8797 -9543 9853 0
6198 -5947 -2469 0
2276 -5429 7630 0
9619 9310 8420 0
3970 -5678 868 0
-9077 1671 -7699 0
2329 -4638 -2174 0
1732 -6903 -4840 0
-9118 4133 -6520 0
5400 9104 -6430 0
-8880 -3089 -8685 0
3496 1712 -9579 0
7284 5214 -3726 0
-7833 8856 -8643 0
1646 -5673 63 0
-6740 -6220 -8914 0
-1081 -6432 -8154 0
-5989 -2837 7706 0
-2736 6261 2522 0
2876 6007 7426 0
-9634 -6372 5069 0
7986 5220 -2879 0
7579 -8378 -3960 0
-783 -8694 -9496 0
2969 852 4119 0
611 -4872 1945 0
4961 4813 -8129 0
857 4660 485 0
-8513 4636 8759 0
-9533 -8223 -4462 0
-5244 9694 -6367 0
1103 2292 6671 0
-9850 6708 -5855 0
-8928 4748 587 0
-349 931 3789 0
1719 5627 5903 0
-1654 1919 -9530 0
405 -3814 4874 0
-5664 2562 6440 0
5123 -1704 1308 0
-8656 1003 -2451 0
-5510 -369 -7296 0
6024 -2244 8818 0
-9480 -8300 9586 0
4471 -2934 -3271 0
780 -6583 781 0
-3148 -8939 -4555 0
-9630 5553 -2564 0
-1520 -8581 -5115 0
8287 -2222 -5422 0
7291 -8214 7906 0
-9620 -318 9309 0
5569 -7486 151 0
4309 -8295 -7966 0
-2138 1674 6906 0
5528 8950 -9 0
8561 6529 -261 0
627 727 6208 0
-8265 -5994 -6352 0
-4634 -1212 -791 0
8941 -6645 7339 0
-9356 1320 -911 0
-1491 -4300 -2634 0
-9547 1989 -2549 0
-4205 9778 1756 0
-7233 -2680 6191 0
5341 -9805 -9788 0
6764 7027 -8496 0
-9715 -8732 -2550 0
5128 3883 -6255 0
7746 5961 -878 0
8226 4519 7985 0
6969 -8823 6650 0
-8955 1204 1597 0
7031 9448 -1255 0
4287 6674 -80 0
3502 9128 -3935 0
1048 -6645 -7092 0
6518 -7948 -7737 0
-8388 -2855 8692 0
9139 -6690 -7657 0
-2220 -4775 -8447 0
951 -4166 7155 0
-5419 -8083 -1588 0
-4169 5840 5103 0
-4642 2533 -9619 0
4042 -146 7373 0
-2855 6182 -3917 0
7564 8630 9863 0
-5392 8243 -1819 0
4244 2931 -6993 0
-3431 -1667 1856 0
9724 -4296 8605 0
-9107 7484 4642 0
5791 9629 -5390 0
5647 5801 7414 0
7725 1817 7152 0
-1983 4238 114 0
-9725 570 2926 0
5227 -4515 -5295 0
-7353 -7267 -1202 0
-1847 6446 9225 0
-2146 8386 -690 0
2550 6149 2344 0
4903 -1224 -6075 0
3837 -8892 -1422 0
-8611 6533 1169 0
-9635 -6627 -6125 0
8208 7066 -9012 0
4761 -5463 2888 0
-2057 4392 -6440 0
-5325 5527 -2633 0
972 -80 4964 0
-6742 2448 -7306 0
7429 8446 3609 0
-1990 -4128 -9488 0
-7577 2438 2397 0
8751 9905 2462 0
9503 8465 -8676 0
-2686 -7215 -9487 0
-8567 -7786 2384 0
561 -883 3692 0
3385 6905 7008 0
9676 -751 7196 0
8757 -1155 3621 0
1956 -1294 9105 0
6 -9216 8271 0
2725 5061 3479 0
-6643 -2525 -5789 0
970 4514 -6992 0
-3759 9337 -9203 0
9894 2626 8844 0
-8158 9191 -1380 0
-9353 8125 1151 0
9505 -3092 -5446 0
9965 4266 -581 0
-5723 6259 9106 0
-6523 4072 2705 0
4605 4169 -9707 0
-4171 -8661 1933 0
-3328 5815 8274 0
5407 8169 -9705 0
4776 1418 -3090 0
-7156 -1165 -4180 0
6350 -3138 -8234 0
-8961 -2499 8085 0
750 9134 -4111 0
846 4509 -2945 0
2345 -4416 -5163 0
6338 -2214 -1950 0
3790 -5816 -6075 0
-6224 -6084 -8775 0
566 -7551 -1158 0
-6398 8086 -2507 0
7875 900 1265 0
-4330 3165 -268 0
7114 -9783 3442 0
-5318 -9541 -5100 0
6249 -2467 2397 0
6577 -3050 7393 0
3131 9980 9960 0
-982 3567 5889 0
765 -823 -4235 0
-7877 1561 2278 0
-8011 -745 5297 0
3078 -4606 -4753 0
-3277 -7473 -2484 0
8880 -9324 702 0
8360 -1499 8458 0
7776 9780 -7504 0
-8427 197 3038 0
-6642 -8413 4475 0
-7108 9141 -587 0
3449 -5961 -1081 0
9714 8465 667 0
3682 -4693 -3220 0
2311 -4776 -9289 0
888 -5964 -5579 0
-9266 -5740 6784 0
5375 4491 -5058 0
-9019 -1389 4547 0
-679 5611 4970 0
200 9073 -3617 0
-7224 -2924 4741 0
9301 -4749 4893 0
8553 2270 -6897 0
5750 2122 292 0
7060 -2306 -8644 0
9034 -4976 -4569 0
-734 -8087 -4198 0
-1342 8936 -3053 0
1153 5316 8741 0
4552 -1456 8189 0
-4416 7079 5470 0
4982 9759 1937 0
2811 1418 -9570 0
5043 944 -3237 0
-2337 2997 -5594 0
9876 1456 5066 0
1293 6190 -2569 0
-8446 7393 8185 0
-2461 1469 7920 0
1610 6151 -4222 0
9683 -8129 4803 0
-1798 9866 3131 0
6132 8569 1118 0
8119 -3607 4584 0
5943 4981 6139 0
-1699 725 5558 0
-1103 -4398 2693 0
4014 1152 6136 0
830 -1449 7335 0
-7309 1063 5711 0
6325 -4458 269 0
402 5256 -1144 0
-8826 -1987 -1102 0
2512 -5815 -4786 0
1028 89 -9644 0
-1990 3021 -854 0
3726 2321 4094 0
-3875 -5735 -1502 0
-1405 -8114 -1190 0
363 -4058 7300 0
5039 -4915 -1013 0
-9698 -321 -3304 0
-1173 -7642 -1788 0
3974 344 7550 0
-2664 -5303 -9262 0
-8532 -3295 986 0
6135 -7651 9689 0
-4554 -6756 -4670 0
-9130 -972 -9188 0
4530 -4540 -5973 0
5250 4955 -3604 0
-1310 -7095 -3137 0
7717 7353 -8975 0
7483 3522 -606 0
6823 7301 8485 0
7776 4423 4672 0
782 -3921 7220 0
7760 2936 5144 0
259 -2010 -7871 0
2415 4557 -3063 0
-1544 -9381 -3506 0
-9741 -7518 3392 0
-5564 -5242 -5866 0
3125 -6004 9722 0
3065 -3668 5715 0
8345 -7928 -7354 0
-4871 -2256 3516 0
3347 -4953 -9332 0
4362 -3466 9993 0
-1016 4931 6252 0
-9159 -8318 -5839 0
-4426 -5904 -4017 0
-591 -5324 6869 0
9146 -8951 5833 0
-2322 -4012 -231 0
9856 -9446 1371 0
6661 4872 531 0
1924 1678 1104 0
7275 -7712 8742 0
643 -3799 -4494 0
-2124 1414 4342 0
-5293 3118 -3076 0
-3725 7775 8708 0
8936 2528 4279 0
3940 1236 1795 0
-8234 -9432 -2838 0
9888 8877 3039 0
-4170 -9679 -9231 0
437 -6465 2573 0
-1414 4332 5629 0
-5772 -9491 4656 0
5232 -3323 -1089 0
-4 -1571 -842 0
-9123 1590 -9814 0
-3855 4881 1 0
-4297 -534 4199 0
4003 -1249 -5392 0
-7584 -8705 -5874 0
2547 -9 4266 0
-4048 4402 -7825 0
8697 6938 -8272 0
9645 4465 2932 0
3065 -3676 5473 0
7588 68 -992 0
8043 4431 -2476 0
4991 1341 -6120 0
-8992 8663 7881 0
-1869 3845 -4684 0
-1103 1468 -1253 0
2713 9867 -823 0
-9988 -4714 3608 0
1216 -6462 2773 0
-5654 -9019 -7147 0
694 1207 5902 0
1318 -4069 1177 0
227 5027 -3411 0
8839 7600 1122 0
6748 5058 3234 0
8579 4810 5945 0
-3492 9627 3241 0
-4883 5625 -9181 0
3350 9826 9259 0
-3854 -3357 -3620 0
-9214 3772 2316 0
-9385 2175 3995 0
-8595 6871 -81 0
-6620 -2964 -7664 0
-6365 -1415 -2605 0
2226 6123 8211 0
8351 -2993 -3305 0
4592 -8786 4842 0
-9260 3941 -2376 0
7748 476 5956 0
-5329 -9541 -1604 0
9896 5794 -2448 0
-2482 -5657 325 0
-1203 -8840 1050 0
6181 -6391 -1933 0
-942 -9172 -194 0
-7254 1185 3265 0
2586 6693 2850 0
628 -7243 -8672 0
-6487 6287 -1486 0
-3291 -4371 924 0
-7778 -4530 -4061 0
-2428 -5963 -3047 0
-1902 -2566 -715 0
7822 -9158 -1907 0
-3974 6699 -7705 0
-8253 -9380 7314 0
-8028 5260 6838 0
4232 -1695 -6177 0
-3971 6425 -8019 0
3637 4170 -1203 0
-8189 -2301 -5176 0
-6948 -3516 -8820 0
-8400 5925 -1755 0
-92 -3634 4390 0
-7238 4343 3713 0
-3074 -4502 6682 0
2809 -2997 9251 0
4926 9772 8887 0
5277 -6295 1915 0
6663 -238 8687 0
4438 -1718 581 0
-1535 6319 -3693 0
-2923 2492 -5209 0
6531 -3173 -9554 0
-7569 -8746 3452 0
-2343 -566 3546 0
-910 -7833 3455 0
-4074 6380 2308 0
-8049 8101 8431 0
-943 5532 6114 0
-1613 5137 7470 0
-7491 7222 -2766 0
-2608 6402 -4619 0
-957 41 7553 0
-4437 5067 9064 0
7969 2263 -1876 0
-7177 7474 -8629 0
-3889 2435 5959 0
2121 -2167 -9302 0
-1733 -9196 2372 0
-7266 4437 -1521 0
4214 -4330 7754 0
-5192 -364 1556 0
3814 -2889 -5588 0
5095 2711 9130 0
2090 -5434 6053 0
4004 -235 -7382 0
5869 -92 -8549 0
-8664 -93 -2711 0
2817 -5675 4543 0
-6559 -5168 4104 0
7133 -6635 -4401 0
8070 153 -5753 0
-263 8793 5025 0
2353 9331 4357 0
9477 -5872 8210 0
-5884 -3515 -3366 0
3623 -7209 3610 0
-595 3299 7904 0
8590 5604 8707 0
-174 -4585 7382 0
-2594 -8375 -736 0
8106 3120 -6753 0
-8774 -4004 -7998 0
1339 -3002 1160 0
-6802 -3874 -851 0
3980 -1575 -1616 0
3973 -8950 -9291 0
-4597 -4004 6166 0
-7068 4862 -892 0
-1206 -4438 2270 0
-238 6089 -1018 0
635 -5840 -1084 0
-1969 639 -9619 0
7250 7049 2627 0
3262 4386 2462 0
-4016 -5382 70 0
-2957 8004 2326 0
2986 -409 770 0
-5860 -2799 -1529 0
8743 -3450 6633 0
-7770 3640 -5782 0
9510 -9378 9214 0
-7640 -4454 4512 0
-492 2972 -5518 0
-6585 9815 -989 0
7047 -2839 9887 0
700 -4049 -5770 0
-7929 -1357 1975 0
-1089 3920 3935 0
2142 -8604 7697 0
-2242 4620 -2512 0
4493 -662 -7677 0
5810 -4620 -6177 0
-1246 8231 2888 0
2154 7021 3394 0
-483 1620 -7071 0
2275 1032 -4391 0
-6172 8773 4898 0
-1206 5561 -9586 0
9140 -4686 -1219 0
8439 4539 2904 0
-3383 8308 6759 0
4530 6636 -4562 0
-6834 6944 -6322 0
-6749 -3593 -3990 0
-573 7679 -9788 0
-5987 -5038 -9551 0
4025 -4562 1719 0
3340 3456 -9454 0
6664 -3407 -6019 0
8065 370 -2339 0
-7187 986 -7817 0
3793 5908 -6773 0
4812 -400 6833 0
-6658 -1573 -3188 0
-1541 -3161 -463 0
4005 5950 -6347 0
7980 1143 -5925 0
-2275 3466 -9024 0
5069 1408 3191 0
-4278 -5558 -8777 0
-273 -675 -9422 0
-2683 -4866 8257 0
-61 -766 -4615 0
-3265 -7547 -2679 0
534 7365 -7254 0
-9578 9272 -2281 0
-8055 -9990 -7999 0
1323 9885 -8042 0
-6300 556 6209 0
-465 927 3634 0
-6604 7212 4883 0
5270 -3040 3366 0
8479 -9093 -6867 0
4934 9102 855 0
-2344 2070 3044 0
2099 5209 9541 0
1557 -9424 -7075 0
3832 5762 6681 0
1136 -963 5938 0
6993 -1682 9793 0
5378 1615 -694 0
7788 4516 5339 0
8019 -5251 8593 0
-2185 -5036 -3865 0
-956 4687 5660 0
-5702 -6588 8264 0
-6547 -5249 -2257 0
2312 -6116 5647 0
6312 9244 -2855 0
-4174 -9407 4577 0
8475 -1106 379 0
3321 -4804 811 0
-2524 -5439 -1339 0
5863 4189 1529 0
4962 7192 -270 0
-8543 1621 5945 0
-507 2741 9500 0
-5720 -555 5145 0
-1299 4302 6814 0
-4017 2329 2669 0
2962 -7139 -709 0
-9967 -9681 6077 0
7284 8663 711 0
-5419 3623 -487 0
-4 9288 5356 0
2392 7311 1597 0
-1912 3236 -3483 0
-5922 -6807 -7399 0
5707 1173 -2734 0
6809 -5790 4568 0
4404 8007 1773 0
4385 9235 729 0
9427 -463 5872 0
1423 -640 5855 0
-8684 6634 -7183 0
-7552 3232 9645 0
-3051 2396 8150 0
-8673 -6253 7370 0
-1232 5560 -2136 0
7093 7106 2799 0
858 -5932 -3108 0
9891 -5748 8356 0
-6313 1816 7552 0
-1601 8031 1954 0
-504 -4195 7300 0
7313 -9709 -3040 0
-3039 -9181 -2682 0
-4734 4368 -3348 0
-7502 7138 -4787 0
4647 -7427 -4595 0
8463 3305 5935 0
2178 -1331 8480 0
9981 -7686 -4416 0
-1445 2443 -3611 0
316 -1173 -2716 0
-8155 -4269 -7573 0
-4597 4893 -1752 0
-7253 2931 5949 0
3325 7375 -7912 0
-5402 7958 8435 0
2361 -8083 9536 0
3675 6843 -7089 0
-2034 8932 6334 0
-2550 5160 1281 0
-8958 8864 -5233 0
4871 -3118 -9276 0
6650 -246 -2979 0
-9002 4464 -646 0
1919 2602 3478 0
7781 4079 8964 0
6704 9724 -9086 0
-9863 -2250 5681 0
7369 3411 5685 0
-1644 1309 5898 0
-5926 7028 -7882 0
-159 778 -941 0
9699 7317 7419 0
1262 -2959 7897 0
1592 -7094 -7721 0
3706 763 -3549 0
-8443 -8561 -5350 0
-1936 5058 -3603 0
5323 2775 -9587 0
42 -9447 -1478 0
-5888 -7963 -106 0
2483 5376 2195 0
-7854 -1756 1608 0
-466 -7608 -5871 0
7198 7025 -8676 0
1096 -5090 9543 0
9582 8629 -1150 0
-6465 -3013 8390 0
623 -2538 622 0
-9930 9421 3286 0
2706 298 9976 0
7509 -8574 -3870 0
-4308 9639 1139 0
-9683 5039 1474 0
-8874 2637 -1926 0
2664 -3397 7576 0
9541 8164 737 0
7777 3707 -1365 0
5864 -9006 9082 0
-1802 1345 3478 0
8268 -1781 -2226 0
957 -7557 -5098 0
6257 -9579 -5525 0
7011 5926 -7789 0
-7042 8764 -1965 0
2844 -4170 4881 0
-1655 -2172 -9651 0
-8057 4016 4683 0
8918 7281 4767 0
-5644 6177 8590 0
8609 4555 1095 0
706 4126 -5815 0
3745 8127 6145 0
3562 2418 8721 0
6834 3667 8307 0
8136 -5292 8974 0
-875 5646 -2656 0
-8180 -6192 7646 0
3733 4248 3582 0
-467 -2523 -392 0
2016 6138 -1439 0
8981 1636 -842 0
-117 2772 -9620 0
-3551 9400 -3527 0
-2242 9396 -286 0
8499 3785 5812 0
501 1099 9774 0
493 -4028 -625 0
-3147 -4476 7007 0
-315 -4305 -3607 0
-6790 1252 2997 0
5273 7632 -6425 0
5482 -7330 6124 0
253 885 8819 0
1414 1910 -49 0
-3355 -8086 4273 0
-6503 -5264 -1460 0
-8502 -6281 1712 0
-4734 7781 2779 0
-7177 -5312 8774 0
-7369 7659 3921 0
3093 5917 4564 0
-171 -3551 6990 0
-9000 -8305 -459 0
-4372 -2867 627 0
-4384 -9399 -890 0
5189 -4811 7315 0
-1766 539 9675 0
3112 -7542 5344 0
5908 -7000 -727 0
-6452 3358 8568 0
1432 3023 -9851 0
-6504 -8251 811 0
2211 -1696 2085 0
-2420 688 -3275 0
-4227 9108 -4415 0
-1630 -2399 -9647 0
2173 -3158 -7260 0
674 5805 6278 0
1997 -977 5022 0
-829 2403 9289 0
-1862 6363 3389 0
3652 9086 5121 0
-8130 -1621 1846 0
-8991 7028 -5589 0
-4911 -938 -5242 0
3045 -4707 -6397 0
1559 1941 -7620 0
1069 8595 -5711 0
-4289 -3645 2841 0
9089 -6532 -95 0
-6032 8831 3335 0
-420 5370 2455 0
8477 3613 4085 0
-9895 -5773 -252 0
8360 9966 4312 0
-5149 -9329 4000 0
-9608 9136 9585 0
5136 -2883 2460 0
5138 2896 -7658 0
-5242 -291 7138 0
374 -1845 -4907 0
-703 -6667 3662 0
3772 -7698 384 0
2625 -4500 9272 0
-3070 -160 9121 0
-3004 6744 159 0
-6949 -2990 3577 0
-413 5724 3999 0
-3669 7112 6884 0
4369 632 4186 0
-3039 8355 8384 0
3082 4045 -2902 0
-2173 -7719 8726 0
1543 -3847 39 0
-7582 -942 7382 0
-583 9432 -4787 0
6280 5589 9214 0
5470 -1924 -3218 0
5723 7929 9691 0
-1015 -7466 651 0
8649 -383 -4699 0
-7119 6287 -5326 0
-7959 3017 -4520 0
-2501 2981 -5849 0
5003 -6779 -8605 0
9102 -9119 7945 0
133 9504 3534 0
-5 4152 3270 0
-9345 -3622 -7428 0
3373 -5786 -1940 0
7981 -5618 -3880 0
4618 9801 5531 0
-9286 -9015 7922 0
1584 3430 9989 0
2390 2197 -2126 0
-9239 -8708 -5676 0
7391 2055 6017 0
5536 -7734 5973 0
-2142 1766 -6343 0
2962 -2668 7553 0
-7210 4554 -8107 0
-8563 -2769 -3088 0
3143 -271 9144 0
1530 -4914 2377 0
2659 4257 -726 0
851 3588 6052 0
7745 -5424 7226 0
9934 7578 -5755 0
5609 5330 -5790 0
9598 -6140 -9113 0
-7160 6085 9417 0
774 6476 6076 0
9785 -3514 9912 0
-3428 5197 -9119 0
2741 2705 6222 0
8042 -3453 -4673 0
4235 7991 -6433 0
4834 7169 -9543 0
-121 -8051 -2206 0
-6005 -3839 -5111 0
-9899 5875 -3963 0
5145 5956 -9493 0
8268 -3174 -2832 0
-4910 6061 -685 0
-4409 -2817 7717 0
4863 222 7755 0
3151 -1328 -9109 0
7409 9227 -1426 0
5756 7085 3534 0
-9811 2585 -5721 0
7390 3300 3510 0
-3689 9418 -1222 0
-1253 3486 -6792 0
-3897 7251 702 0
-9239 -9244 -8274 0
-6946 -6156 166 0
-8539 477 6964 0
-6861 2127 7827 0
-703 -759 -1381 0
-1505 5052 8665 0
-9765 7538 -7865 0
6551 -1844 -56 0
-7214 9646 -3060 0
-9815 1726 -3573 0
722 -885 -8453 0
-3291 -3777 -5801 0
3757 -5843 7284 0
-6420 1356 117 0
2398 -6241 -3615 0
8825 4549 9948 0
-4248 62 1858 0
-7196 -4934 1719 0
7908 -9687 -1420 0
8995 5839 -5882 0
7489 9331 -8032 0
-9641 8845 8102 0
3875 5948 -1571 0
6525 60 -2962 0
7523 3246 -8751 0
-6078 8240 1467 0
-8331 -9946 -7406 0
8268 574 6447 0
3644 -7494 -4518 0
9169 732 -8786 0
-4251 6211 9956 0
5742 -7308 -9375 0
4837 -6282 -4699 0
-9567 3179 5183 0
8691 -4285 1876 0
1560 -1190 -3251 0
-1976 2540 2313 0
8215 -9866 4759 0
-9519 6032 3189 0
3476 4417 4602 0
8409 5150 -5367 0
2327 7249 -6257 0
-5786 -9897 -6549 0
8566 -5992 -5006 0
7117 -9134 -4011 0
5426 1850 -5607 0
-1710 5025 313 0
1779 -3653 5511 0
-1434 -1977 7630 0
8799 5225 -381 0
-1279 3270 -9082 0
1410 7928 1083 0
7622 2033 -3045 0
-485 3260 6171 0
-826 -9863 1315 0
-1392 -6092 5231 0
-1440 8800 -8210 0
-3339 -2960 6760 0
-9260 7649 -7535 0
7116 9590 5057 0
-1333 -8979 -5287 0
-9586 -4293 7600 0
2985 -4744 750 0
-8480 6234 -4419 0
4727 -8995 -5922 0
5166 5290 -5745 0
-1505 -6528 1763 0
1235 -310 4541 0
-7491 -146 2271 0
4645 -8081 -1192 0
1275 -3525 -4670 0
-663 -3776 -2850 0
3734 -2612 -6119 0
-7976 -7552 3323 0
-1255 4277 -6777 0
-3353 -5884 -9447 0
-6022 7272 3833 0
-460 6179 -5607 0
4354 9613 8969 0
774 7803 1292 0
-4207 7640 -1517 0
-4631 -1098 8531 0
3019 -7815 5711 0
-4730 3697 7783 0
-4136 -9265 -6474 0
-5127 -8405 -414 0
864 -2842 -3436 0
-8833 1203 -3337 0
4068 -1585 6651 0
2301 3263 9882 0
-5118 -3486 -5813 0
-7067 -4768 5803 0
5854 36 3404 0
-5054 3396 9230 0
6809 4030 7867 0
-7883 -7907 9426 0
7832 5419 8069 0
1709 5456 -6925 0
1138 5577 -6777 0
-8728 3835 4095 0
8423 -6711 -7848 0
-3245 6593 9768 0
155 -2228 -999 0
9980 -9233 5192 0
6539 8007 5253 0
554 -9850 -239 0
-6727 -7591 -229 0
6492 -5669 6465 0
-1368 53 3700 0
-9533 -3778 3314 0
-286 -5350 -99 0
220 9737 3118 0
7647 -8389 3089 0
7392 -5313 9544 0
-5265 -1884 6233 0
-9677 -6376 4663 0
1115 -9501 3825 0
3769 8289 3633 0
543 9922 -9143 0
-8376 638 6386 0
-7380 -2968 4414 0
5739 1849 4817 0
-4516 -3815 7990 0
6023 6844 -9358 0
6407 5516 -7890 0
-763 -6822 -580 0
-4031 7737 -6068 0
-2535 9317 1884 0
4010 5807 -7894 0
-434 7009 1714 0
-9053 -3205 5881 0
7622 5499 5715 0
6772 -6491 -1157 0
-6103 3698 -7019 0
-3238 -3425 -9002 0
-905 781 9235 0
5505 -6699 -1336 0
-4848 5835 7530 0
-6356 -8141 3590 0
-4953 -3768 1421 0
2923 825 -5235 0
9796 890 4602 0
-2793 -7333 5512 0
2492 3502 4348 0
-6772 -5347 9958 0
5643 5540 6495 0
-7681 -7557 1194 0
2451 4217 1075 0
-2890 9673 -288 0
1923 7926 114 0
7344 -7778 9121 0
8088 8638 -8635 0
2758 2804 -15 0
-9467 6063 9365 0
-9856 4860 305 0
-5224 -3257 -8608 0
472 -8746 -8610 0
5393 1369 -9746 0
6578 6657 9460 0
-5496 3139 4312 0
3360 -2061 -2548 0
7154 3370 8912 0
-4890 9970 8447 0
-9988 2410 1830 0
5142 -2186 149 0
-785 -9285 -559 0
1006 8192 5336 0
-5115 2807 1016 0
7404 8893 -16 0
1933 -4658 3745 0
-3248 -8574 2235 0
-8831 -9523 3632 0
6248 9016 3450 0
9839 7230 2358 0
-7701 8743 -1805 0
2316 465 -6719 0
-8540 135 1026 0
1335 -9888 7696 0
-3613 5747 -2228 0
-5315 -9795 -6226 0
2548 -7788 454 0
-6951 5956 2104 0
2228 -5066 6624 0
5674 -4402 -6554 0
-534 -2654 4773 0
-2937 2070 -9037 0
-2730 -7503 -3046 0
-4159 -9998 1659 0
-6219 1955 7131 0
7345 -2175 4963 0
1825 6531 -7885 0
-5632 9392 8045 0
9600 7001 853 0
-7282 4185 5840 0
5127 8525 -5339 0
2679 -5018 -6120 0
-4331 3678 -8446 0
9644 4078 -5358 0
3524 6549 -5512 0
-3494 9297 -4624 0
7731 -6385 9705 0
147 -221 -5592 0
-2422 -5503 1747 0
9291 9378 3726 0
1458 6803 -5537 0
760 5198 865 0
7907 -4300 -7446 0
-2779 -1411 -1147 0
-6836 -5724 963 0
-8849 -3882 -4488 0
8750 4901 -9358 0
2655 -5249 3087 0
8141 -251 -448 0
1930 -4793 3509 0
-9182 -5854 -1425 0
-3219 3434 1480 0
-6385 -639 -3083 0
7884 8123 -3333 0
-8246 -4808 4141 0
4556 -3971 -6691 0
5949 -5762 -730 0
2192 6868 3142 0
-7998 -4820 -4027 0
5896 -7923 9076 0
-4800 4357 1274 0
9987 -5860 9312 0
-9617 -8354 -1971 0
7689 -1648 9464 0
-5688 -3856 3934 0
4058 1506 2154 0
4699 -9491 8095 0
-2944 9915 -7976 0
4373 756 -4106 0
241 -288 -6721 0
-316 7148 -6729 0
4384 -1606 2645 0
-5699 757 1201 0
4482 946 6526 0
-1639 -4393 2264 0
-4498 -9888 7393 0
-9960 -2185 -9276 0
4165 3562 8492 0
-5617 -8067 -4101 0
3785 -2409 -8294 0
-4914 -6952 -300 0
-7692 218 901 0
6506 -9698 -5881 0
-877 -548 -1761 0
-7406 1762 -4188 0
-7112 8386 -9395 0
-1913 9911 -8257 0
-8497 -8539 -2106 0
-132 5986 9802 0
-5252 5824 1422 0
8517 9796 -6504 0
-5485 6649 8488 0
-5250 9539 -1298 0
1938 6736 -4026 0
-5277 -3817 -4089 0
6005 7055 -5743 0
-3335 9402 -2546 0
-6664 3381 3767 0
-1043 -9876 2799 0
4284 -9362 6697 0
-6779 -1063 -3495 0
-2163 -3152 -4090 0
1532 -8508 8280 0
-7782 -8465 -3551 0
9499 -1085 4198 0
4419 592 731 0
-7584 -325 2466 0
-8894 -1299 -5326 0
8382 -9566 -4555 0
-1372 -1674 1406 0
-9733 -1876 8389 0
6568 -6098 6308 0
-851 -254 -1265 0
1742 -6735 630 0
-575 4724 5576 0
-3209 185 -6208 0
-8446 -1502 -5137 0
8291 -9541 -7500 0
-8528 6028 3826 0
-5272 3025 6932 0
-7536 4 -732 0
1002 8003 5720 0
-6004 207 3104 0
-8879 4029 -6700 0
-7577 7374 -7237 0
-5017 7116 6326 0
-8563 8503 -6640 0
6753 -7201 9685 0
-2664 -7879 -8793 0
7667 3091 -340 0
3914 -3658 -3213 0
-838 4563 4991 0
7200 9540 4868 0
-2510 -755 6362 0
6691 9641 -1002 0
-6871 -4205 8150 0
-6688 9836 8055 0
1839 968 5570 0
458 -3768 66 0
-7412 -3047 -3577 0
-8764 9340 691 0
-2326 3922 -3738 0
-9153 -177 499 0
-3753 -606 -5144 0
7235 9963 -3850 0
3183 3488 884 0
-7602 3888 1438 0
-6392 7139 -4462 0
-4298 6598 -3877 0
-1801 2620 -8069 0
-4390 -6776 6702 0
-7347 -5891 -7641 0
-955 3252 -2742 0
5855 -8061 -4078 0
2868 -8860 -6805 0
3900 8151 -2316 0
-8652 -9634 1455 0
-405 5725 4645 0
-636 307 -2673 0
-517 2748 4205 0
-8190 -630 -8384 0
-8774 -9671 1648 0
-1559 -4790 -97 0
1441 2068 8663 0
699 3313 5051 0
2783 3219 -7952 0
-2257 -6253 8253 0
729 -941 -6832 0
3522 -123 3252 0
-9960 4497 -4024 0
-7918 9888 -1230 0
-6466 3009 -4563 0
5859 8040 -3311 0
5197 1038 -5903 0
8777 8200 -24 0
-7265 5280 -9615 0
1474 7802 4113 0
6348 -9474 -8594 0
-1841 -7896 -6099 0
-5228 5314 -5886 0
9619 -1366 -9631 0
-2966 -3140 258 0
6624 4445 9116 0
-7824 9209 2604 0
-4687 5403 5486 0
5996 -688 5231 0
4699 44 4766 0
-1002 6900 -3453 0
-4039 3969 5719 0
-894 -7938 -7236 0
-6403 4137 -8055 0
-2877 -7277 7402 0
2770 -7654 2062 0
-9272 3178 6949 0
-3297 6168 4447 0
-6434 -8084 6019 0
-5992 6737 2070 0
-3225 5497 1665 0
-2817 6891 4442 0
-6813 -1080 3316 0
2359 9368 -5670 0
-1212 1184 -2195 0
-2231 1026 5112 0
4658 -6199 886 0
7259 6325 -8020 0
8475 -2345 2662 0
-6583 -7780 -5144 0
-3094 -848 -5606 0
-2239 8426 -1573 0
4250 -4734 -7116 0
3526 6145 7523 0
-610 -7794 -7188 0
4812 -2742 -3827 0
2872 9679 -3571 0
-2775 -5219 8382 0
7143 1392 5980 0
-3502 1111 6978 0
-6976 -2273 2310 0
-8548 4608 -8820 0
-6709 -3959 -5988 0
-9506 2964 -6978 0
9436 673 1874 0
4387 9328 2523 0
-9201 -513 -8395 0
-502 3329 2622 0
-6180 -7274 7215 0
-6057 -1030 -4704 0
-3493 -8693 -6413 0
4159 6842 -6268 0
301 -4605 -6197 0
2045 -6361 -5170 0
5137 -4158 -4629 0
-5681 -17 -3327 0
3278 2179 -9364 0
-3015 -2542 -9339 0
-533 -5139 5489 0
388 3683 4266 0
-3064 2132 8951 0
-3019 4390 -4294 0
8763 -2722 -8895 0
9200 8022 -9850 0
5016 5445 -8158 0
-1015 8026 8787 0
4628 1913 -441 0
3041 -3012 -2582 0
7198 -4811 6159 0
-3562 5067 -7372 0
-8495 -4382 -4053 0
-1074 -1359 -3957 0
6438 3113 1811 0
562 -6298 5546 0
5362 7825 3836 0
751 8211 9676 0
6711 3898 -2775 0
2 9887 -8441 0
-3492 -411 -9101 0
9613 -3764 -6311 0
7842 4775 -666 0
-167 5195 5291 0
1947 -201 -2302 0
-1075 -1698 -1414 0
994 8748 -2833 0
3946 -7907 -9459 0
8383 -7297 5075 0
8799 6795 3589 0
8705 -2186 -9042 0
9289 -3000 8402 0
-2866 -6300 -5402 0
7233 -9304 -5581 0
7743 -3782 6090 0
2820 -2906 -3614 0
-1301 -2492 -5192 0
159 8650 -2495 0
935 2035 -8827 0
-6398 -3122 8283 0
3582 -9604 -8218 0
-8734 7057 -7460 0
-9857 6027 238 0
6136 -847 -3657 0
-1635 -8603 -8324 0
-5417 -8581 839 0
1041 6083 -4228 0
-1998 -4636 1322 0
-8065 -8989 572 0
-6726 2863 -1645 0
-8464 -9281 -2525 0
-9021 -3118 -1543 0
8736 7606 -8019 0
566 348 7126 0
-2299 6051 2131 0
-7366 -5214 -4540 0
-1741 -4234 2084 0
1498 2143 -7946 0
4129 -4108 -2845 0
-5622 9828 -23 0
-4275 3080 -3860 0
1643 1274 -161 0
-4306 -1178 637 0
-5107 6495 -1702 0
-686 -3410 5727 0
-2454 -3580 5894 0
9513 1350 7694 0
5002 -2583 -5972 0
-9977 -1949 2465 0
5520 1045 -2916 0
6853 -6217 9830 0
-4639 4665 -6309 0
-627 -6053 1498 0
-4620 3825 -4930 0
-9279 7091 -8503 0
-3243 4148 -1536 0
6306 -1627 -223 0
-226 246 6892 0
-1016 -9538 9723 0
-9738 627 1858 0
-3950 2016 -8466 0
7907 5109 -497 0
-7529 3910 5721 0
-8229 -1211 9252 0
-2888 3121 -9932 0
-2096 -1359 8485 0
7711 6695 -2716 0
9496 9912 1849 0
-9953 6032 -5273 0
1818 -7104 -6313 0
8527 -7030 901 0
-3683 -3416 -3287 0
4622 2920 -8598 0
-5837 -3221 -701 0
8157 -3383 -5075 0
5430 1293 -3527 0
-7515 -3793 8920 0
-9356 -7412 -3374 0
5405 6661 5664 0
2678 -6891 -4039 0
9637 7454 -3791 0
-8268 -6392 -7021 0
7527 -3087 -5513 0
6548 -584 6158 0
1739 -3500 -4684 0
-1131 -3903 -9897 0
-7385 -9961 3730 0
-1622 5088 6229 0
9802 5248 9817 0
3018 -4262 -8910 0
-6848 3795 5047 0
9602 2766 3836 0
-4803 7234 6917 0
-2309 4806 -4631 0
4060 5264 -9422 0
-8675 -8881 8695 0
-4748 -7635 1785 0
3233 3736 1715 0
9109 5626 2887 0
-3625 -4055 -2431 0
-6111 -7100 9779 0
9219 3 9787 0
-2909 6959 -3465 0
-6263 -3658 5589 0
1876 3562 3373 0
5463 -499 4280 0
8376 2401 9301 0
-6483 6458 -7480 0
5102 -4999 -5341 0
7070 3421 8962 0
-4705 7391 -6517 0
3625 7738 2951 0
5683 368 5486 0
-4939 -2026 5430 0
5644 3509 3233 0
-9966 -8397 -31 0
-2790 -8331 6891 0
1771 -5296 -9249 0
-4441 2814 -1206 0
-2015 6120 -331 0
-3697 -2759 8598 0
-6469 -5167 6288 0
-9415 -994 -5294 0
-6284 8441 -64 0
9318 -1335 -6114 0
-3371 1853 4051 0
-2558 -8578 -7812 0
9204 5416 2710 0
3387 -5798 -1953 0
3960 593 -5962 0
669 -1637 995 0
-8881 2100 7007 0
5633 8554 3340 0
-4691 -5342 -991 0
-4057 -5776 6304 0
6188 9139 -3737 0
4842 6718 8972 0
-6567 -6470 -5785 0
-80 2923 -8319 0
-6003 -493 -2883 0
-1755 -8789 4714 0
3545 -9739 -6788 0
-5866 4356 -9385 0
-7733 8016 4501 0
-5163 5380 -7570 0
-1088 -3838 420 0
3476 -7997 2203 0
-8630 7166 -355 0
9599 3370 -1739 0
-2984 3388 -5755 0
-4557 -3724 -4277 0
584 -8040 8117 0
8878 -3830 8480 0
-6846 6245 9581 0
5958 1148 -8743 0
-1723 -8755 -9104 0
-5947 -9549 5681 0
6576 -7845 4047 0
243 3596 -8079 0
-2069 8144 1795 0
9167 -4594 4448 0
-7863 2220 -6094 0
2348 7517 -7209 0
-2407 9084 -2305 0
-9191 2357 -1206 0
2469 -1018 8243 0
6695 -324 2544 0
-390 4176 -2267 0
2266 4298 2481 0
-1713 -5793 -9590 0
-2541 -5618 -6017 0
-2838 3683 -1299 0
5634 7332 7381 0
1626 9667 -2521 0
8561 9614 -6442 0
5028 9943 -5884 0
8690 1231 -1259 0
-6097 7551 -5568 0
-7789 9077 -7678 0
-6361 4323 -7060 0
8784 5911 -1627 0
-2245 -5010 1146 0
-3316 5421 -1511 0
-6425 -746 1905 0
7768 8825 -5404 0
1158 4726 6884 0
8710 -9453 3624 0
7117 6551 -8905 0
1588 2932 7531 0
-435 8161 2755 0
9060 5876 -1232 0
1224 9271 5093 0
2480 -8237 -2180 0
5441 860 -9758 0
-1764 -6507 9949 0
2558 -8432 -5316 0
5242 2554 -569 0
5712 -7748 -4781 0
-7976 7463 -631 0
-3580 4760 -419 0
6668 -9065 -5066 0
-8107 556 -1203 0
-8912 169 6518 0
6935 -550 5512 0
7707 2404 -754 0
7001 -8073 4091 0
7293 -4485 47 0
8925 7606 -8298 0
7773 -8051 6062 0
-8637 548 -9126 0
-315 7104 7391 0
-7032 9540 1263 0
-864 -3985 -6666 0
-1952 -7980 -3635 0
7008 2659 -2002 0
1350 749 -9082 0
-3807 -3392 2333 0
-1124 -3539 -7839 0
5988 -5024 8749 0
-9669 -9764 -5468 0
-7323 -8539 4466 0
1374 9390 2568 0
-3247 8758 1244 0
1135 -6022 3544 0
9684 -1246 7556 0
-8713 -4765 -671 0
6361 3573 -8210 0
-5798 6410 3978 0
8608 3199 -5135 0
-2344 -9636 -5476 0
-9953 9580 -3847 0
4174 4031 2991 0
-5065 8673 157 0
8579 8983 9521 0
1678 785 -4794 0
6351 3638 -193 0
1096 3859 684 0
6766 -385 -4075 0
9845 3738 9197 0
-5800 -4675 9493 0
5197 -9221 -4253 0
-5594 -3660 -4625 0
-4671 247 -1336 0
7068 -9249 6473 0
-863 -6895 6801 0
3322 -115 9902 0
-8540 5973 6472 0
-6186 -2571 8839 0
-4986 7351 6271 0
-846 -1832 5049 0
-5330 1127 9261 0
-589 5582 4165 0
7798 7646 2864 0
-575 721 8534 0
-3266 -6839 -6885 0
-2185 -6602 9327 0
4475 8404 383 0
-1538 8746 1823 0
6908 -453 -1075 0
-7884 9526 -6595 0
-7034 -3352 -7209 0
-1295 -7523 8852 0
-7006 -7493 -8529 0
-9430 -7950 5860 0
-1120 -609 7067 0
7806 4120 179 0
-2452 9458 -5193 0
3278 5662 7702 0
-3451 1386 2987 0
-8497 5075 -2435 0
1502 5819 9721 0
-7594 -7215 216 0
8425 5425 1823 0
-5371 -5736 -5348 0
-7201 7372 1752 0
-6478 4670 7399 0
6055 7958 6209 0
-2132 5869 -4149 0
9688 -7849 798 0
6379 7025 -2137 0
-7007 8520 -9644 0
-7506 -1549 -5135 0
-9883 4019 -807 0
-9046 -7892 -1585 0
6054 -8932 3825 0
8872 2124 -9375 0
-1004 -9556 -8801 0
-6856 -9999 5638 0
8159 3363 7500 0
-4000 8413 -9793 0
182 1894 -3624 0
721 9562 9068 0
8626 7249 -6736 0
-2239 -5332 -5613 0
3813 -1454 6783 0
-6474 -2633 5184 0
-3350 -7545 6685 0
-9887 -3817 8666 0
-2682 4230 -7164 0
-7234 -8740 -8826 0
-6676 -3371 3648 0
-5150 -7845 1617 0
-726 8658 8380 0
-6739 -6973 1375 0
6528 -1183 -139 0
5663 796 8589 0
-4592 2047 -2437 0
-7808 3360 9977 0
-5778 -4663 -267 0
-2231 5012 4382 0
-8587 8133 4225 0
1321 6207 -309 0
991 6867 -4009 0
-9387 5816 -6585 0
1374 -7794 5432 0
-7680 -2629 5847 0
-8354 -5601 -9464 0
-4479 8810 -5224 0
-3985 -3644 -4849 0
-8630 3960 -2509 0
5538 9159 -1478 0
-5473 6800 -6513 0
1071 -2853 -476 0
860 -608 5563 0
-5172 -8036 -981 0
5693 6847 6612 0
-1543 -8831 -7992 0
-4990 -3959 1354 0
-6971 -4331 5726 0
-179 5857 8748 0
-990 4845 3827 0
-2039 4026 4488 0
-9616 246 1721 0
3779 5198 3213 0
-8066 5589 -5272 0
7453 -9295 -8301 0
9743 -3780 -1764 0
2452 -3269 -4513 0
4711 -3606 5242 0
-9128 -4548 4988 0
8355 6087 3112 0
4044 7638 1304 0
6408 -4807 295 0
6080 -4516 -2135 0
4499 -1745 -8179 0
-2555 4626 -949 0
-5028 4299 -903 0
3798 8890 7776 0
-5410 1656 -7958 0
1714 -1311 -7945 0
-2531 9872 -1028 0
7587 -1821 -6819 0
3144 5728 1500 0
3889 -6131 2658 0
-3704 9668 1949 0
5917 -661 -8193 0
2594 3917 1076 0
-9290 -6568 -1098 0
9868 -9166 -1086 0
1756 -6296 -6379 0
2076 8738 -8432 0
5822 8700 -1689 0
9779 5810 -850 0
-9872 9772 -8212 0
2060 -7177 4697 0
3718 1699 2132 0
2514 -726 3995 0
-6902 497 -6936 0
-9501 -4185 1164 0
-5621 4580 1514 0
-4147 125 -596 0
-532 -2774 3489 0
818 3194 -2209 0
9038 8896 2829 0
-3548 -5085 -6168 0
-8175 203 2400 0
9143 7959 2982 0
-7813 1922 -7195 0
-612 5790 1133 0
5802 7637 7594 0
1338 2380 -265 0
-4669 3100 9388 0
-3361 9728 -7096 0
9759 2796 9414 0
7697 7538 2448 0
5051 -6437 -6809 0
2863 2190 7965 0
2292 -916 1028 0
-1873 -1167 8134 0
558 -2608 2066 0
6490 9778 4889 0
4383 -5446 8370 0
9603 3826 -4255 0
1365 1261 231 0
9120 5146 3179 0
1413 6153 -3833 0
-7200 -5383 -6625 0
-9768 7838 -6488 0
-5168 -9839 -5540 0
-8774 7031 7679 0
7725 -1496 -4909 0
-8601 5352 -2694 0
-4465 -8950 -3236 0
2174 -8179 6890 0
-1017 -4302 -4819 0
-940 791 1251 0
8811 -4786 -9314 0
-5987 5085 826 0
-2850 -745 -7713 0
-5857 -4411 -4924 0
-6191 8085 3702 0
1331 -3694 -3158 0
3915 3009 3140 0
845 -6268 4802 0
2546 5930 4608 0
-3296 5801 -1032 0
-2830 -7425 -1666 0
-5816 -1635 1080 0
-1301 6082 3365 0
-7803 1940 -7840 0
-2715 -1062 -1243 0
1951 -4731 9144 0
5847 5629 2937 0
-8025 6822 268 0
-4861 4428 -4966 0
-4513 -3874 -7435 0
-3395 9348 -4746 0
9803 821 5585 0
3001 -4654 6184 0
-3261 4275 -8902 0
-5582 7271 -6187 0
-186 8750 2173 0
5185 -9596 9487 0
-4693 -1020 -7272 0
2306 1957 8719 0
1448 3897 8972 0
4419 1707 6476 0
-3260 -2893 -442 0
-9971 9688 -2523 0
-2808 -7440 8344 0
-4437 8914 -216 0
-8949 7923 -4585 0
-9566 -5071 -1129 0
-6836 6715 -8454 0
7821 6767 -3957 0
-5682 6716 3161 0
2396 1289 4044 0
-2284 -4265 -96 0
3506 3722 -7915 0
-2615 -6720 -273 0
8803 7910 -2282 0
-982 -3420 3413 0
-5841 9440 -7474 0
-6173 -6496 -8991 0
5266 -9468 -5432 0
-1436 56 -1863 0
4268 -947 9104 0
8168 -6909 -9648 0
-4435 -9521 -1258 0
9797 -8307 -679 0
-3485 -3731 -8857 0
-8269 -4765 2172 0
-80 7921 2485 0
-2539 -5366 -425 0
3674 9640 6091 0
-4915 2597 1365 0
-6002 9679 9520 0
-5146 4969 -7828 0
6746 8946 6210 0
139 9537 -9218 0
7826 2594 9723 0
-8038 9307 2091 0
6170 2485 -9171 0
-2300 -2541 2023 0
8425 7433 2793 0
-1333 1919 -1788 0
3736 3180 -2060 0
-9447 5628 -2234 0
9780 551 8834 0
4744 4965 -8912 0
-6111 314 -1285 0
-1605 -2270 -5894 0
2405 5643 1948 0
-610 -302 9141 0
-341 -3189 2295 0
6568 7582 770 0
-5502 -6652 -1696 0
-3807 -3497 -7311 0
6275 -4936 1783 0
-9548 9376 -2160 0
-5082 -7818 1511 0
-575 1465 6547 0
-2519 -8410 -4545 0
-6559 -4518 2816 0
-5679 -997 9117 0
848 -6394 478 0
-8547 2142 -6597 0
-9707 940 -6324 0
-1034 9850 736 0
1086 -5515 -3097 0
-910 482 6919 0
644 -5937 -5327 0
739 -8569 -7967 0
-8659 -5648 4644 0
5337 9334 -7088 0
1923 2246 -4186 0
7512 6982 1067 0
-4741 1106 -1648 0
8925 -4892 719 0
4528 -5942 5263 0
-305 -6308 4320 0
-9026 -5403 2479 0
5561 -8126 974 0
-9772 -2635 6869 0
-1218 -8970 -5357 0
7514 -6376 45 0
-9779 -9319 -8922 0
-9031 3188 -5129 0
-4600 -2710 -2839 0
-5859 -412 4892 0
3041 -8999 324 0
-6354 6714 -1360 0
6692 6089 -9331 0
-1306 2276 -1343 0
-314 -703 -4407 0
6842 8936 -8731 0
-3559 3034 6777 0
7592 -8639 -4278 0
1574 -9657 2357 0
8580 3883 -2109 0
9229 3141 -1287 0
1214 -3759 2276 0
-8096 -4929 2185 0
6869 1634 -8815 0
-931 -7314 2209 0
-1017 380 2190 0
-6015 1184 -4200 0
-3156 -9171 2953 0
8612 5060 9505 0
-168 -7542 3994 0
-6810 6806 1654 0
-9110 5584 8790 0
-5739 -5139 -9184 0
-6620 2726 7611 0
-771 -5207 -5609 0
4908 -2803 5202 0
3126 9032 -4110 0
-9561 7042 -435 0
-9493 -7629 2887 0
7754 6544 9290 0
-7909 7587 -820 0
3545 -2845 3501 0
-4565 -9616 6009 0
-4148 -2984 9560 0
9251 27 -3561 0
-1300 2938 6447 0
5979 -7946 -4288 0
-6227 9344 -9964 0
3456 -9116 -4742 0
-3481 -1146 8551 0
-2291 -5809 -3286 0
-7802 9342 -877 0
-2216 -3277 219 0
-7504 6272 5958 0
4131 2734 -5413 0
2999 -4279 1328 0
-848 7880 2951 0
3564 -1554 -3974 0
-6370 -9111 -3885 0
1705 8972 3155 0
3700 -9506 9099 0
4248 3215 -8330 0
4829 8311 5435 0
6603 1154 3221 0
-6941 -1799 6361 0
3887 9910 -1283 0
3887 5118 8328 0
-3074 3664 4789 0
1375 -9245 6779 0
6903 7634 -3581 0
7198 734 -1838 0
-2663 4726 -1071 0
1544 4310 -2197 0
4038 -8304 -6946 0
-7094 -9640 604 0
4779 -5392 3592 0
6297 -1033 5591 0
-6720 -885 6637 0
-2619 -2136 -6038 0
5515 -9789 -1348 0
-375 6162 9695 0
2695 -3465 -8856 0
3304 1379 7999 0
9042 -7846 8512 0
-8881 -9761 7202 0
-5868 9337 5986 0
-3768 5678 -4037 0
5718 -3732 -6705 0
9824 7798 3141 0
-7694 5088 -2381 0
-3499 5777 3031 0
-1665 -5484 1111 0
-4414 -5425 3827 0
6016 -1348 4387 0
-3940 -4312 -2160 0
-8639 983 3622 0
7392 -8145 2373 0
-1633 -3322 7449 0
7207 -9282 1750 0
8746 8878 2812 0
3184 8768 -9860 0
6372 -4725 1045 0
8081 6204 8686 0
9671 7274 2698 0
-1076 1596 6850 0
401 4081 -9241 0
-9393 7502 846 0
-6856 -5092 8431 0
6712 -9246 -2346 0
115 9933 4887 0
7239 1531 -6348 0
3191 -289 2250 0
-7372 6066 5104 0
8180 5912 3133 0
2463 -6867 -1195 0
1514 -6540 2918 0
5505 -5999 6116 0
6514 5045 3781 0
2612 2033 110 0
-5448 -8340 -4677 0
7782 -2158 -6721 0
-7871 -8562 9669 0
9089 7845 -386 0
-30 -629 2897 0
-2307 8082 -2001 0
1857 -3531 5180 0
4095 685 -3319 0
-6065 -9805 3597 0
-6387 1889 -9200 0
-507 7021 -1030 0
966 7741 1499 0
3021 9716 -6559 0
-3953 -7116 8000 0
1218 3823 -2806 0
3865 3179 4700 0
-9982 4883 -6861 0
-2738 743 -4445 0
-442 7875 -8961 0
5947 -2304 -7802 0
4914 -1765 -8341 0
196 -7431 -4796 0
-7940 755 -8759 0
8592 -3954 -9114 0
-8160 -399 -3267 0
-228 -1575 -1475 0
3584 -5673 -8219 0
1044 -9114 -7262 0
2197 9131 5812 0
2690 -7906 -8789 0
-7362 -595 -5619 0
-4686 -2794 -1130 0
7738 7558 102 0
-2256 8785 5322 0
8168 7764 4075 0
3563 9065 -4070 0
-2602 6435 1112 0
295 -6249 -5022 0
-474 -8001 8632 0
-6479 1350 806 0
6450 3911 -5115 0
-2791 9225 7585 0
7106 -988 9285 0
-1714 323 3507 0
1113 9707 -7745 0
-5212 -1265 6133 0
-1288 7508 -6103 0
4899 -9697 -8150 0
5798 7934 7408 0
3307 -7857 -2721 0
8335 9826 -7803 0
-804 -1274 4943 0
-550 6354 -5711 0
-7893 6844 -1639 0
8840 -4793 -9319 0
-300 -3945 3848 0
3957 6927 1708 0
-8532 -4847 7123 0
3051 3593 -4571 0
-5747 8484 3983 0
-703 -542 1422 0
9702 -5036 179 0
7271 552 1392 0
-4186 9202 8982 0
-1624 5286 -1301 0
-6355 -2365 2273 0
-2058 1469 -9902 0
9244 8270 -6518 0
2649 1587 -2170 0
-7428 -8314 5091 0
-3167 5150 -3095 0
-6844 5877 5691 0
6546 412 5504 0
8939 -7185 5704 0
1142 -6820 3159 0
9582 2247 -5738 0
-1221 -9654 -7540 0
3552 -9239 6782 0
8112 -1333 9870 0
8182 -3282 -813 0
5261 -4995 1553 0
6228 -1594 1277 0
2262 7945 -9903 0
-6254 -341 5685 0
-7490 8659 2027 0
-6969 2876 -6039 0
7998 4076 1213 0
-5718 6524 -1313 0
-1980 6480 1796 0
6254 -2749 -8450 0
-4 2481 -3713 0
2164 -7012 3052 0
5693 5026 -5107 0
4107 6122 -751 0
6330 -1977 -3724 0
7731 4267 -3802 0
-6417 2182 2415 0
-6862 -1186 1692 0
-3099 -9950 -2264 0
5137 4562 -4963 0
8745 9281 -8523 0
-7521 -4806 -48 0
-2076 -6222 1862 0
-8136 -1438 -1380 0
-9161 -799 -6461 0
-7286 3299 7003 0
-5327 -2393 -3159 0
-9262 -595 3095 0
3995 -9390 8079 0
9298 -9345 7844 0
7156 -1660 1704 0
5038 -7100 3780 0
4982 -9924 -2958 0
-4214 -3282 -9023 0
-9600 9587 -5510 0
-1692 7154 -4657 0
5401 -3472 -8179 0
5854 -6053 5968 0
-851 -7584 -5955 0
-2374 1647 -6336 0
-1434 6782 6374 0
1440 4276 -1249 0
-9395 5431 2343 0
-1371 -5590 -4639 0
-7576 7597 -8127 0
270 231 -8388 0
3565 -9786 3802 0
-8022 -7667 -1915 0
-1202 -5265 -5126 0
5067 59 -4644 0
-5369 -6682 -7405 0
-6216 -5049 -2918 0
8075 -29 -3039 0
1438 7556 -7514 0
9407 -1517 7428 0
-4449 7456 4434 0
2055 -8790 -9812 0
-9667 1627 -5981 0
-6830 -8478 9037 0
2732 -3300 -6843 0
3356 4303 696 0
6640 -6739 9272 0
-11 -6582 2393 0
9644 -543 9071 0
-1767 4192 8413 0
8216 3134 -6641 0
6818 -2888 -3100 0
-2890 -9271 9216 0
-969 -2062 -4150 0
-3875 1524 6172 0
-6746 5114 1906 0
6169 -1195 -7817 0
251 4099 3473 0
-2522 -327 -3028 0
5079 9318 -7780 0
9185 -9602 -3031 0
2893 -3376 -7384 0
4451 298 1873 0
4283 4650 -9245 0
926 6209 -3448 0
528 2208 -899 0
-5107 -2095 7178 0
-2086 7774 26 0
-553 -9511 -7956 0
-7741 6543 -6942 0
-7758 -2398 8158 0
8313 6010 5455 0
7053 -4937 -2759 0
-7773 -6113 -744 0
9381 7184 -7914 0
-4917 -3222 -4062 0
-849 5451 3043 0
-2831 5676 2575 0
479 -8840 -5817 0
-4822 967 -7235 0
8416 2458 -3965 0
713 333 8013 0
7691 -144 -6176 0
-9897 -9378 -8357 0
2459 -5533 9341 0
-148 1605 -7496 0
-2847 -447 -1866 0
709 -505 7086 0
7796 7072 -5317 0
8499 -885 -6839 0
-7354 9178 8743 0
9838 -1505 -1463 0
6391 -9274 7734 0
2094 9507 -6555 0
-939 -4845 -5582 0
371 1840 -6369 0
1396 5827 9736 0
-119 -3773 -262 0
9955 -8593 9306 0
5153 -361 2896 0
-4362 8941 9393 0
-9400 3413 -2985 0
-8047 -6617 -773 0
-8981 -818 -4107 0
981 9472 3890 0
5090 -2001 -2631 0
372 5678 -3959 0
8797 7514 -9319 0
339 8678 9166 0
8819 -434 -4034 0
-1054 -9072 6221 0
9734 -2397 5334 0
245 -354 -6539 0
4554 7569 -6976 0
2800 -2573 1637 0
-3067 -1885 -3789 0
80 8446 -9249 0
1187 9991 7812 0
9443 4947 -5054 0
5533 6796 720 0
1955 -179 8355 0
1414 2187 598 0
4657 9940 -7572 0
-9217 4787 -3255 0
-5604 -9198 851 0
-1708 -9467 -4944 0
9268 -4855 7199 0
5020 4873 7430 0
-9158 1091 -9362 0
644 -1730 449 0
1069 8945 -7939 0
4728 9854 1826 0
963 -3218 -8317 0
3132 -8112 3328 0
7828 6079 -4357 0
-9484 9887 6679 0
9506 -6679 -6412 0
1410 -1850 -8454 0
4053 -1604 9438 0
2980 7954 4122 0
-3196 5474 560 0
4285 7097 -1011 0
9730 4639 791 0
2733 1827 -6811 0
1243 6921 1113 0
-2967 -2444 7002 0
394 -7611 6622 0
783 -1805 -3429 0
5663 -2453 -79 0
-131 2360 -119 0
36 -8481 -357 0
-2253 6311 -8148 0
9684 -1255 9056 0
2173 -4279 -2938 0
-6456 9264 -2294 0
9651 9678 206 0
-396 -9948 -7202 0
139 -3888 -1296 0
7991 3295 4168 0
5529 5986 5769 0
1455 3241 -2171 0
7875 6197 8965 0
7177 -1601 8195 0
6119 266 4837 0
-4051 -1829 -8998 0
-306 -2391 -155 0
9921 3011 2807 0
1135 -9208 -5972 0
9261 -6254 -6811 0
344 8680 -115 0
7448 3532 9464 0
-2000 -8098 -2906 0
4337 4991 -7832 0
-5878 3753 5009 0
-3154 7860 8766 0
-469 4651 5133 0
6615 -7505 5404 0
1563 -1480 -1078 0
6379 -7772 -4653 0
4666 -1205 8343 0
-7023 -9527 -1387 0
5375 9019 7318 0
-4985 2148 -8817 0
3660 8774 7371 0
-377 1440 215 0
-7 -6353 5594 0
-6299 -7288 7341 0
-1610 -4211 7475 0
2920 -3158 -1397 0
3940 73 -3040 0
4121 6946 7188 0
-3538 -6647 -1246 0
-6230 -4358 -6395 0
-2166 -1362 -1102 0
-8523 3292 9543 0
5617 -48 -4114 0
-4353 5186 1483 0
3010 -6385 9572 0
-5234 2494 4326 0
-619 1060 -3760 0
-412 4410 7957 0
3382 7252 9850 0
-7112 3531 -7998 0
-4817 -6560 -7161 0
-7401 4696 8681 0
2275 -3031 -4081 0
-6894 1830 -4664 0
-1225 2877 -1587 0
-8335 -6626 -678 0
221 5806 5724 0
-8908 -413 -8410 0
7379 8026 -399 0
2729 -7179 2836 0
-9067 9946 1873 0
-9171 -9344 -1521 0
-5081 9727 -9577 0
-1703 2189 -4310 0
691 65 -8993 0
-4607 -662 2920 0
-9142 -9941 244 0
1118 2773 -9385 0
8624 8657 2814 0
-1135 8119 -2421 0
2539 -3251 -526 0
4433 660 -5035 0
-5247 9215 3447 0
-4682 -2556 -5453 0
-6368 3022 7273 0
4736 4865 1685 0
9535 -3972 2599 0
6173 -3755 5626 0
1925 -4662 915 0
8732 8678 -1017 0
4982 3926 644 0
-3061 8263 -9875 0
-4987 -7445 1340 0
-9651 4316 9569 0
-3050 4354 1188 0
-4335 -2754 33 0
877 -1740 -2785 0
-898 6663 7727 0
-1719 -8073 -990 0
-1821 -9150 -8532 0
-2910 2592 7392 0
688 -2544 7521 0
-4087 -6279 -7048 0
1010 -6464 8424 0
-1951 1435 -531 0
3984 -1228 -6860 0
-1610 8857 -2221 0
-8322 6868 5214 0
-3741 -8064 -2492 0
4848 -3845 -8370 0
-9857 -3469 -50 0
3896 -3942 -206 0
-2283 -897 1828 0
-2219 -1913 -564 0
-234 207 6814 0
-3127 9392 -4178 0
5775 4746 -5007 0
-6246 -1797 -2490 0
-141 9379 4588 0
-7966 8688 -5663 0
1259 -1383 4346 0
5417 8838 -62 0
-2494 -9556 -9338 0
9586 -4706 6997 0
6480 -5138 3300 0
-6163 -4351 -4636 0
6100 -8611 5325 0
-3359 -7649 356 0
956 -2481 -5438 0
3513 -1104 837 0
-4169 -9918 9357 0
2951 -4074 -4359 0
4680 -1625 791 0
9335 -6096 8062 0
-2127 9456 7675 0
7711 1208 -4671 0
9175 6925 -2422 0
-9229 -1899 3383 0
3692 -9262 -2571 0
1897 -9438 -2753 0
-7249 6816 -4699 0
-2970 -4884 6727 0
-3006 -6305 -9549 0
-5819 7798 6477 0
1955 -1221 6567 0
4251 -633 -2514 0
-2492 6444 -3305 0
7927 678 4790 0
-4849 -4361 3211 0
-5282 -227 -5615 0
2480 8604 -6044 0
-9249 -6036 7774 0
-1945 7787 2522 0
-9325 2044 1567 0
3253 -4716 -8911 0
-3249 8954 -3640 0
-5756 -4071 3720 0
-2891 4570 -1925 0
-7444 -1301 247 0
-7748 -4705 9099 0
4185 4901 8576 0
9286 8008 -3232 0
-557 -1576 4539 0
9374 -3156 1516 0
1982 7883 1146 0
2395 6783 -1047 0
-4763 3950 1255 0
-6396 3078 8362 0
-6238 3331 -9499 0
-2112 -6287 -5328 0
-7840 -50 -7034 0
3021 6729 -2363 0
-5127 9197 -332 0
1584 7620 -9623 0
-9389 1071 6524 0
-8432 -4240 -3267 0
4773 4835 559 0
-3437 6399 805 0
2972 796 -1670 0
-2094 -1522 -7008 0
-6962 -3131 6356 0
2161 1390 1258 0
9358 -7573 -5900 0
2929 7514 1038 0
2123 6580 -2128 0
-4132 3857 -793 0
-3508 5506 6869 0
1242 -8787 -7688 0
8155 2859 1896 0
7525 5859 7777 0
-5145 3049 -6445 0
-6412 2807 -4486 0
-9916 -5271 -7172 0
-2159 935 -2469 0
-5802 -4497 4250 0
1248 8759 -1046 0
-2286 -7502 2444 0
-5052 3946 -9322 0
-6531 5354 4353 0
3582 -9133 -6629 0
7724 3895 3749 0
3090 5981 8766 0
-282 4027 9041 0
-6450 -8585 -9741 0
5986 1036 7293 0
830 -8597 -5269 0
4433 -4939 -7396 0
4331 -848 4959 0
6391 6361 -9089 0
-3207 7557 -6495 0
-282 8101 6641 0
467 -2841 -6597 0
-9788 -703 3340 0
7031 -4206 -1407 0
-8150 -7449 9266 0
-4750 -9567 -9104 0
2630 4996 -4417 0
4083 1810 -405 0
3890 3114 4790 0
-4811 3931 4498 0
-8257 7763 -3161 0
4035 3436 -9880 0
4702 -4296 6983 0
2060 80 -4849 0
952 2112 3847 0
-9724 -9530 9229 0
6827 -4089 6697 0
-628 3823 -3968 0
9127 -2760 -8775 0
6362 -266 2733 0
-8629 682 -8833 0
-9214 5664 -1593 0
2715 9166 7462 0
-2908 7646 3535 0
3853 5583 6302 0
3711 9395 -5809 0
-8113 -3532 8656 0
9304 -1543 -6600 0
14 -2023 6587 0
-6063 -3104 -2632 0
2147 2978 -4547 0
5060 -4814 -3191 0
5875 -94 -3921 0
7991 -9964 33 0
9806 -2748 -8959 0
-4920 -2750 -9729 0
-341 5821 3975 0
-7862 9796 -4110 0
6813 160 -8207 0
-2109 1775 -1552 0
7960 -8204 -5132 0
9385 -8577 6821 0
7304 -5842 350 0
5785 7534 5267 0
1771 2155 5848 0
-8325 4500 -621 0
-6354 -9481 6657 0
3615 8665 9139 0
3311 2344 4252 0
-1727 -4163 -2994 0
7696 -7238 -4122 0
-9187 1153 -3196 0
5036 -6255 -3212 0
5706 9079 -3036 0
8859 396 -694 0
7211 -5808 3441 0
-562 946 -5134 0
2621 -8445 -178 0
-5171 8679 2472 0
7790 9732 -6634 0
640 -9691 -7235 0
3224 9139 5888 0
-6576 -9652 360 0
4169 703 3261 0
-8852 -9961 -1352 0
-9707 -9371 -6736 0
2015 2140 8647 0
-3443 -1695 -2038 0
-4245 -3778 3404 0
9272 7087 -6661 0
3810 8903 6626 0
-2025 8647 -5167 0
8172 -9079 -9945 0
2166 -2162 2740 0
-8734 7945 9140 0
-8450 -6787 -6500 0
31 6024 -721 0
4773 -3121 -6248 0
-2840 -9454 -9137 0
-9544 -4748 -7628 0
8572 -4591 6459 0
717 -4321 -5819 0
-2141 1792 -1070 0
-9284 -7168 -3750 0
-2359 -9629 -6897 0
-5000 3257 -5842 0
-9434 -9758 -4933 0
-2831 -8725 545 0
-5433 -9051 -8637 0
-4304 9612 3222 0
-3193 -6472 2624 0
-7420 -7241 -4098 0
6892 -4079 -6381 0
8326 1461 -2852 0
3809 6043 -4762 0
1264 -8938 6388 0
-5839 -8810 1819 0
-4221 -9472 7808 0
-6858 -2572 -6553 0
4804 -1934 5259 0
-9486 -2074 9920 0
-1016 5049 -5366 0
6503 1193 -3704 0
9382 1401 -7423 0
6139 5140 8023 0
-1971 -9587 -4338 0
-4841 604 -1308 0
3815 -1427 7057 0
-423 5015 3999 0
-6830 -9293 2525 0
8817 2172 -2729 0
-2944 253 -4865 0
5225 -6196 9857 0
1611 -2705 -8060 0
4113 2730 -147 0
-4681 3166 -762 0
-9470 -1957 9834 0
1831 3240 590 0
-5658 7806 7484 0
-9746 -1539 6070 0
1867 -9771 -6473 0
-9558 -8673 -2193 0
612 -5224 -1746 0
2151 2675 5629 0
-8986 -7473 -6617 0
-8465 6779 -462 0
4848 109 -2786 0
-2757 -8355 9428 0
-1305 8605 4467 0
-6950 -5867 -1955 0
-7719 8888 -6437 0
-1912 -767 1620 0
6375 -8182 6208 0
-909 2374 -9524 0
-6273 -2879 6333 0
8781 -4303 -103 0
-3050 4738 581 0
-2417 -927 -6593 0
-4322 3838 -2751 0
-3659 -3039 -8765 0
-3472 -584 8670 0
9854 7186 7585 0
1557 4256 5407 0
-6822 -5630 -760 0
-3039 -5274 -6217 0
2428 1236 7714 0
1571 -1275 -7156 0
-8074 -578 -8657 0
1167 9733 6339 0
-6970 1452 -9393 0
5542 -899 3845 0
-7941 4192 -9122 0
1141 -5370 9808 0
-3269 4112 -6592 0
-7133 -3091 -4802 0
7082 3838 -4395 0
-8084 -6995 -599 0
-278 1810 4379 0
-4953 -7971 -6832 0
3781 6676 7969 0
750 -7742 -8736 0
8544 -9732 8979 0
-363 9757 -7244 0
-1286 6785 1802 0
930 2212 -9466 0
-8630 4615 5404 0
3505 1397 -4901 0
5470 -9750 -1390 0
6426 -2702 5401 0
-8404 8530 7682 0
-519 -9691 -8855 0
1782 3872 8522 0
2081 -8205 2984 0
7744 637 -9066 0
9071 -1883 -5294 0
4501 9992 2185 0
-7164 1263 -5920 0
538 -6920 -5834 0
-1476 9081 2308 0
-9651 8668 2153 0
-6221 -1840 5840 0
-5719 8875 7643 0
6981 -2060 -58 0
2569 -2235 5345 0
7826 -7800 5975 0
-2551 -1695 257 0
-2058 2962 -3431 0
-197 -6005 9608 0
-9608 -4747 -9383 0
-315 128 -836 0
9458 4846 364 0
1546 -6843 6983 0
5788 7847 -1127 0
6495 -4784 -3276 0
1344 -5656 -2825 0
7127 -4492 -9001 0
354 3430 -5721 0
-3712 6134 3155 0
2879 -6612 -8120 0
1020 8479 8465 0
2962 -5087 -4316 0
-9548 -7731 -7330 0
-4073 8903 421 0
5118 -4444 2410 0
2833 844 9849 0
6394 -6779 -8648 0
-5580 1413 3931 0
4425 -2991 3787 0
1290 -9366 1240 0
3699 -4699 -5105 0
6283 3074 3303 0
1823 4903 7445 0
6321 285 -655 0
-560 -4994 8633 0
-5073 210 4350 0
-9989 -6892 3366 0
8927 -9916 -9189 0
4844 8487 -3862 0
-3487 1245 -27 0
9832 -9839 -9060 0
-2262 -7683 -1577 0
-2627 7644 2596 0
462 -4248 -6509 0
-7794 4968 4295 0
-3604 -5236 -2681 0
-1641 8096 -5167 0
6571 -7467 669 0
889 -2667 7481 0
-3631 -4895 1775 0
-3249 4407 7360 0
-1923 -2 -7697 0
-7401 -6673 -6161 0
5067 -1390 28 0
7757 7468 -6698 0
-7636 6220 -1141 0
-4013 4771 5097 0
8 7380 5698 0
-1469 8330 7310 0
-9096 -9564 8701 0
6004 -4214 -2482 0
-3250 -8516 4696 0
-3213 5624 -6136 0
1766 9931 -2734 0
4431 9767 -8509 0
443 1142 7336 0
-4052 -1195 2200 0
128 -8260 -2 0
7347 2434 -4415 0
1177 -8961 5264 0
7269 -6105 -3605 0
-1621 5639 2449 0
3473 7817 8659 0
1182 -8043 4256 0
3805 -9485 -212 0
1976 -5588 -7741 0
-8402 -4610 3952 0
3422 2882 -8825 0
9998 4238 9758 0
-1923 -238 7891 0
-8192 -7404 3713 0
5034 -3400 2044 0
8537 3493 -4608 0
-2910 2794 5415 0
-9288 -2495 1993 0
-80 2362 -5455 0
1044 -2996 -4620 0
-9963 9518 -3201 0
774 9143 -2839 0
1540 -2903 -1047 0
-1627 8237 1027 0
4876 -5853 -1757 0
915 -713 -4909 0
1861 2418 -9453 0
5413 7277 -195 0
-9212 -4783 -1597 0
-6379 3474 3522 0
-2306 4576 8706 0
6259 -7210 7876 0
-8156 3740 -8326 0
505 -4560 -5973 0
3751 9102 -7418 0
-4906 -6075 -2397 0
9627 6735 3686 0
-5029 -5410 4724 0
4385 -2136 -3102 0
1280 -9682 -3791 0
-3899 8808 -235 0
-5203 -8285 7070 0
3378 -3792 -7371 0
-8711 4592 2249 0
-9804 4359 -9657 0
9914 8543 8369 0
1855 5317 5543 0
6498 -7224 2377 0
7898 -5389 -5918 0
1692 6029 9484 0
-5371 -4877 -2565 0
7103 781 6610 0
8192 6732 9423 0
6922 8834 -9255 0
7478 -7693 -1187 0
4074 -2194 8928 0
1341 -8678 -140 0
9339 -2985 -3322 0
-685 -3118 3965 0
4810 6927 -6181 0
8338 -1804 7218 0
132 -3857 2766 0
-324 9679 7616 0
-631 -4608 9074 0
-2316 -1701 1391 0
9692 8417 8054 0
1432 6713 -5032 0
8834 6768 4933 0
-7413 -64 6799 0
1558 4416 1226 0
-7345 3761 -6978 0
6764 -7762 4497 0
-5118 6171 -3219 0
3223 4819 -6831 0
7969 3811 4271 0
-437 2473 6051 0
1402 -4012 9933 0
-9417 -4222 240 0
-7361 -1265 7784 0
7616 9630 8215 0
7447 -5057 5572 0
5208 -736 -8469 0
1647 3210 8623 0
-5413 -4941 -271 0
6645 -9628 6582 0
-6359 1402 7456 0
-1782 563 1931 0
4009 4910 8650 0
-7620 -4939 9070 0
-4194 1559 4911 0
7665 -4507 8523 0
81 -9542 6155 0
3991 1205 -2279 0
6495 -5914 -976 0
5024 9604 -7617 0
-7208 -2040 5019 0
-6042 4064 2411 0
9171 3843 -2675 0
-108 5238 -931 0
715 -1266 9351 0
3726 -568 1082 0
6629 -4943 -7706 0
-8377 7267 -4526 0
-767 -4764 8206 0
-6507 6392 3186 0
9299 4900 3519 0
1128 2790 -647 0
9104 -5446 -253 0
-6754 1752 4007 0
-6738 -3153 -4319 0
-8351 -2122 5762 0
859 7001 -2521 0
6792 -3321 -7585 0
-3248 6727 -19 0
23 -6800 -1389 0
-1469 -775 7542 0
9284 511 7476 0
6994 -6597 -192 0
-3190 4320 -3385 0
-4275 -5398 -9113 0
86 -5333 -4128 0
9852 8958 8915 0
-3958 8061 908 0
-4036 8747 -6563 0
8923 -2076 5517 0
5227 -6604 3846 0
-2038 2101 1617 0
3958 3239 -3019 0
5504 -9673 5589 0
8584 638 3779 0
-8485 -8138 -6615 0
4895 4141 4430 0
-7615 -7573 -7099 0
-6147 392 -4284 0
7494 2667 -4775 0
3982 -4545 -6046 0
-6132 -3079 6284 0
-9041 9391 -4031 0
-3213 -8996 -1221 0
-6476 5698 9631 0
4402 8526 5434 0
-4107 -8424 -3753 0
4278 -5460 -1701 0
-81 -16 -7746 0
-2358 6969 -9029 0
-9184 -3856 -7960 0
8300 -9608 -9376 0
3221 5183 -5795 0
-5458 9802 2458 0
-2907 -8506 4724 0
-1519 -8830 3887 0
1996 -5146 7868 0
2535 -41 1268 0
-5221 -5960 2295 0
-5067 -9049 -4844 0
8234 -5183 5974 0
-136 -1601 7836 0
9202 -5420 -9209 0
-608 -5552 -7000 0
7363 -2761 2767 0
4205 -5170 -487 0
-4524 5033 664 0
-1011 1666 3501 0
-4077 3165 8794 0
1246 -3087 5528 0
7259 -5702 -8820 0
8669 -8645 5293 0
3530 8011 -7394 0
-6187 7446 2799 0
-7037 8507 -2141 0
4254 511 6573 0
-3749 5274 -7357 0
-1277 -5717 6724 0
6540 -3893 -8076 0
6794 485 6030 0
-1839 5151 -7385 0
-4733 -7910 -3530 0
-9148 -686 9801 0
5902 3078 4841 0
8380 -3327 7948 0
-823 3876 -6172 0
-5862 -9683 2195 0
-3902 3486 -2070 0
219 -8666 -4057 0
-7651 -4044 -9832 0
-4525 7827 3219 0
5060 -5750 1781 0
7623 -4807 -1995 0
-2079 -230 -1288 0
-5309 -1144 5993 0
-5450 -9643 -7964 0
1926 -3864 -9188 0
-8835 -2774 3098 0
7256 5753 21 0
-8114 7950 -4695 0
-20 -568 7222 0
4241 4760 -4448 0
-3584 -3333 -376 0
6072 4351 -4744 0
9152 99 -609 0
4057 2535 5320 0
-3545 4023 -4710 0
3576 -8973 -8641 0
-2357 -3245 -5529 0
2719 -9224 9229 0
-936 -7608 827 0
3315 6795 2987 0
9552 5356 945 0
-5385 475 -6446 0
-9888 -5871 -1001 0
-5930 -3549 -3793 0
8524 7675 7698 0
1770 -5321 -2961 0
-1017 -6902 -273 0
-5580 -4474 8451 0
6024 5794 -1202 0
1307 -2521 1662 0
8455 9494 8650 0
1265 -7471 -4464 0
4498 -8324 -3360 0
-8344 5154 4643 0
6058 3334 -1031 0
2757 8104 8718 0
-505 -1307 -230 0
-304 -2606 -4111 0
302 -6528 -4699 0
1417 1257 4194 0
-3252 -2394 -8415 0
4947 7357 8365 0
9449 -6060 -9343 0
1265 -7271 -724 0
3548 -8342 9551 0
8800 -1449 5305 0
-9918 -5792 10000 0
-4219 -5988 4850 0
2122 -4974 -5125 0
1219 1874 4729 0
-7613 -1772 -2499 0
1319 -92 -572 0
-206 8245 7858 0
-4770 6393 -5902 0
-9633 1418 3361 0
-1984 -1998 5300 0
-2162 3529 -8824 0
-1436 -9779 -6492 0
-3516 6474 7348 0
1896 -6083 -7161 0
-2654 567 8025 0
-4846 -1871 -7360 0
8634 4822 -8131 0
-7011 -6241 -8494 0
4359 4501 129 0
6958 -7387 5095 0
-4449 -9252 8627 0
5402 3673 7638 0
4612 301 6886 0
-9112 858 -2892 0
-5068 -9399 8254 0
8574 4940 -9253 0
-5734 -1248 6634 0
2692 -2659 -2943 0
1186 2160 -1909 0
1223 -935 6829 0
4991 2000 -2110 0
3619 7910 -4344 0
2869 -7971 4214 0
9770 -3362 9225 0
-7596 -140 -6760 0
-2156 -3364 -5728 0
-3107 8311 -5309 0
-6091 3229 -3855 0
3797 -9274 9824 0
6321 -7193 -1699 0
-9494 -4206 2050 0
8104 -1544 7878 0
8735 2526 -2524 0
8332 5142 2150 0
3922 8120 1757 0
-6573 -6427 -9977 0
143 5306 -4715 0
-9751 6911 -7068 0
9318 -9981 -1159 0
7474 6418 3351 0
-9739 6429 8604 0
-9364 3419 9363 0
-6523 -7674 2860 0
5940 5193 5528 0
8810 6609 -4835 0
9536 6337 -3972 0
8240 -306 3799 0
5059 5030 5136 0
4581 6636 -8742 0
1627 409 -7669 0
-7184 -8906 -2508 0
8370 -2610 -8554 0
6047 -9535 1754 0
586 6499 -8875 0
-5817 4459 483 0
7654 -9858 -3024 0
6886 -27 1490 0
-1993 3724 6394 0
-9069 4152 -814 0
-9689 4859 -5561 0
6077 2703 -4445 0
3252 -7468 -4115 0
3853 6590 8844 0
5647 4343 8661 0
-5281 -6004 -94 0
1237 6200 9672 0
-1107 2279 2064 0
-629 -7254 2555 0
217 7845 1231 0
6579 6043 2202 0
-3096 2653 -8414 0
4461 -2292 -9779 0
-8628 -1360 -3510 0
5183 4860 6654 0
-5275 -6535 8963 0
3005 2677 5606 0
2002 9182 9584 0
3584 -5371 -1404 0
-2850 2886 -3705 0
8987 5164 6339 0
-1374 -1577 7256 0
8049 -839 -3008 0
7426 7921 9239 0
5790 8592 -5200 0
-230 1275 -1620 0
9002 -1292 5585 0
-5431 2752 66 0
-1105 4401 3458 0
-2289 2244 1862 0
4659 -1029 1992 0
-8734 -3544 1434 0
-3970 -7300 4298 0
1554 -1474 -2717 0
7404 -1462 -2279 0
-3229 7192 -6672 0
8983 -983 8667 0
2887 -3656 -6437 0
-1545 -8367 -2983 0
-2478 1515 9177 0
-1566 -1646 -2557 0
5413 3625 -787 0
1236 -581 -1258 0
-4037 -7819 2324 0
-3330 6149 -5633 0
6709 4068 -940 0
8745 -5720 -9862 0
3430 -7771 8171 0
571 -4322 -7054 0
-8060 -4562 -5104 0
8327 1355 -4019 0
-7104 9399 -9706 0
-9468 -2393 1913 0
-1151 9840 5319 0
9380 -8877 -1087 0
9892 -7850 6464 0
-8259 6583 -9951 0
-883 -5550 -3583 0
-4728 7576 8694 0
-9871 -8785 6602 0
-1063 8454 -1419 0
5176 -2013 146 0
-1292 9894 9493 0
-2923 -3825 -7386 0
2500 7371 9163 0
5268 1689 -326 0
607 -8077 -1921 0
6845 -737 -6259 0
8571 -1336 5105 0
-5768 9043 -7150 0
9050 -7882 9660 0
-3496 436 -3593 0
2025 427 -1471 0
-8721 -1549 -5055 0
-8739 -7143 -302 0
-9517 -1458 -6957 0
-6008 -261 5520 0
841 -511 -2215 0
-1629 4943 9758 0
3879 6521 -6785 0
-9173 -8895 -9190 0
-3719 -3332 -7 0
8751 -4053 -5942 0
5418 -4941 4094 0
-5525 -7167 -374 0
8061 4859 -1274 0
3976 1699 -714 0
4863 -5779 7648 0
9123 4879 172 0
3383 5375 -736 0
1274 -4784 -3775 0
-5173 5052 9620 0
7513 -1536 -2471 0
4182 2147 7806 0
-5681 -9507 -7305 0
-5683 5896 -766 0
5425 4216 -7924 0
1218 -262 -6348 0
9857 6673 -2935 0
-1918 7603 -3924 0
197 1152 629 0
2882 9398 -9098 0
1013 -7655 -9368 0
7139 -2012 1938 0
-4610 6036 -3423 0
-7581 482 -943 0
3834 -422 4968 0
3396 -9925 8814 0
1850 134 -6089 0
-7632 -4338 -8150 0
8958 -8537 38 0
-7760 5355 -2246 0
1268 -4213 -9758 0
19 -8149 815 0
-8545 -7391 9878 0
-3219 -7915 -1927 0
-8865 7718 -7146 0
-5024 -2527 -1665 0
4040 -728 7258 0
5308 -3872 7756 0
5229 7927 -7441 0
309 -856 3568 0
9268 -312 1905 0
6041 -4968 9109 0
-9343 -6387 695 0
7 -1228 10000 0
2061 4397 -7100 0
3655 -1419 -4865 0
-969 -6685 -4631 0
-8774 -237 -258 0
8200 6493 7797 0
-6163 7243 1306 0
6782 -237 5154 0
7606 -7234 1841 0
-4381 -1050 947 0
7445 2519 9319 0
2641 2682 1126 0
-5392 -2185 -4591 0
9023 9327 1366 0
-8443 -7023 -6965 0
1731 -227 -7205 0
-4279 -7354 6924 0
-266 1102 2158 0
-8883 1278 3287 0
5205 -3452 5401 0
135 -1544 16 0
-5301 -9818 -308 0
-41 -7974 7064 0
550 6377 8040 0
6766 2267 9470 0
3892 6329 2086 0
-563 -9406 469 0
-5505 4641 -4642 0
-6985 2339 -2475 0
4273 3800 6737 0
-9675 6821 -8823 0
-5625 5414 -9904 0
-9973 7270 -566 0
8895 6256 3677 0
3674 -477 -4335 0
5872 -3850 4747 0
-954 4367 -4897 0
749 9995 -2172 0
-1440 -7407 -171 0
4548 4779 4420 0
6016 -1183 9547 0
3475 134 -4629 0
-9583 -7869 9291 0
-5748 7860 717 0
9408 4780 6698 0
-4496 -6816 -4940 0
-8258 -3459 6884 0
9804 -6655 -2069 0
-5950 9136 2871 0
-4839 -1176 -8375 0
2913 8097 -1587 0
6899 7730 -3630 0
2704 9858 -6601 0
8167 -516 2501 0
-188 -5558 -7150 0
8663 5843 -6055 0
-6916 1142 2856 0
-5752 -4250 -9353 0
9990 -7217 -9652 0
-1959 222 -9728 0
-3801 6354 -6980 0
-3084 -332 -8472 0
-7825 -5197 5144 0
-6545 -6680 -2204 0
-5903 -2498 -9979 0
3457 -1207 4541 0
-4629 -8029 -377 0
5401 1892 2322 0
-5374 3232 2112 0
-9153 -4446 472 0
-4849 -6664 7346 0
-7323 5884 -8435 0
-5022 1471 -1872 0
3969 7987 7203 0
-4851 2510 -2203 0
6177 3105 -3954 0
1848 7281 9460 0
-5346 -9076 9450 0
4097 -2924 -8978 0
-798 -4063 2 0
-3434 -3257 526 0
-3050 -6077 305 0
-3427 385 -7037 0
5287 -7862 7082 0
-3561 -279 4177 0
5012 -6509 2506 0
5211 553 -7256 0
-5894 -4235 4403 0
-364 4778 988 0
9187 -4046 -4915 0
7022 4808 -9219 0
-1783 7677 1370 0
-7161 9004 7788 0
3813 4560 5672 0
3803 -2960 -5770 0
-9457 8173 3826 0
7557 -7261 -9119 0
-1999 5873 5443 0
6109 -5051 -7889 0
373 6556 9364 0
-1144 1048 -7041 0
2681 5118 1240 0
2342 -7499 -1204 0
-615 562 7687 0
2270 3169 8309 0
4240 -1862 9650 0
7892 6737 -6174 0
268 -6050 -6274 0
2298 2246 3990 0
2621 -9350 9101 0
8703 2386 -2431 0
2887 7748 112 0
-2881 2550 2181 0
-5594 -4467 5491 0
-927 -64 5020 0
3975 -6767 3779 0
-5954 2542 300 0
2809 -6367 6553 0
110 -3915 -4452 0
-3476 8718 8742 0
1141 6138 9307 0
-7811 1142 -6210 0
-2286 7731 -3462 0
-9414 -2064 -5940 0
-788 1963 2108 0
1227 4849 1200 0
4265 4718 5647 0
-5225 9574 -5216 0
-8708 3201 5617 0
-8541 -47 9453 0
-1513 1940 4307 0
4247 989 390 0
8890 3230 -6682 0
-2829 -418 1216 0
-9332 -5384 4318 0
4758 51 4671 0
6995 -4767 -6707 0
-1237 4352 5132 0
4165 7057 -9305 0
9717 16 5084 0
4874 -6734 1755 0
-1691 6211 1785 0
-3475 2207 -1047 0
-1331 7087 1244 0
-8212 3037 1968 0
6447 -3314 9471 0
423 -2370 -2968 0
4037 5676 -4776 0
-3376 3575 2649 0
6952 -5890 9089 0
-9107 -5585 -4678 0
6227 1629 -958 0
-6794 -2795 -9579 0
-2944 5668 -2435 0
-1966 -9603 -2383 0
-9042 2381 -2291 0
6018 -5847 7397 0
-8731 -2042 -7237 0
-4518 3707 -5624 0
9078 -7895 -2236 0
-4140 7864 3447 0
-448 -4175 8594 0
-8355 -3799 -6030 0
-454 8293 -9372 0
-1712 -9044 -4071 0
2072 -4055 -7295 0
1632 -697 1112 0
7150 -1496 8647 0
-8332 9093 4746 0
-5919 1051 3454 0
4072 4289 -5762 0
8977 -456 -5920 0
5622 6068 -922 0
-6537 9217 -326 0
5017 -1211 -1947 0
-4032 -9701 -3897 0
9891 5962 4032 0
1005 -4857 5722 0
-59 1773 -8321 0
3048 -2236 -6931 0
-5248 -4331 3992 0
-5441 7054 6238 0
906 -9808 4737 0
-9317 -9286 2464 0
7327 2304 3205 0
-9890 4143 -7239 0
-1231 -2969 -4635 0
-741 -4068 772 0
-2899 -3211 2294 0
-2910 -6516 1763 0
-8873 8028 -8699 0
9749 626 -3830 0
4530 -6652 5308 0
-5366 -5212 -1369 0
6119 2543 -597 0
-9552 -5317 3131 0
-8185 -7919 -6699 0
9839 -5487 -8810 0
8574 9992 -7877 0
608 414 8900 0
-2 4683 7665 0
-6627 -5553 -87 0
9291 1088 3171 0
6849 6548 -3533 0
-641 -9800 -465 0
684 -1092 9967 0
750 9146 4860 0
-4094 6273 2722 0
3817 2580 1748 0
-5822 -9755 3127 0
2726 4226 3911 0
271 847 -8560 0
9777 -643 5184 0
-9496 1591 -8330 0
-1226 -6082 -6938 0
3410 -2049 2087 0
8940 6490 -6126 0
4432 -6625 6895 0
5564 5616 6926 0
-5336 -3022 -6655 0
9401 -6620 -7157 0
2049 4197 9112 0
-9094 2723 1578 0
5100 -2899 -8445 0
-4115 9132 -7293 0
-8578 -8456 6363 0
5314 362 6265 0
-52 -6417 -6535 0
8732 7025 4925 0
2404 5565 -3816 0
-4946 -848 -9005 0
5166 -7359 5970 0
-3566 -3823 7805 0
-4690 -5184 5811 0
4598 8806 -8953 0
-1567 1769 -3354 0
-3912 -7911 -9706 0
-4684 5823 -3427 0
435 -8406 -2528 0
3247 -5163 5308 0
-6608 8786 -8947 0
4609 3851 -2883 0
-7271 -5891 -4405 0
1620 -9038 -4178 0
-7391 -476 7944 0
939 -5628 1273 0
-1772 -2476 -2754 0
-7092 9684 977 0
-4638 1858 9847 0
5445 7978 4981 0
-2078 -1254 -1583 0
4020 -5664 -5130 0
-3951 523 -2767 0
-3979 -1656 -8762 0
3455 8169 -7488 0
4697 -7914 -8551 0
-4192 -2954 -3219 0
-5987 -1739 -9286 0
-5537 8596 2561 0
-3439 -9898 5928 0
6428 4640 -4419 0
-2554 -6661 3230 0
-5418 -9266 499 0
2445 -4664 -158 0
-6498 6905 2727 0
7569 -5520 9361 0
-1058 114 -6091 0
2014 2099 2144 0
-6359 1876 3214 0
7900 -6649 -938 0
-8445 -1481 -7944 0
6601 -9574 3210 0
5824 2901 -7328 0
3821 2653 -7629 0
-6841 8804 8649 0
-6171 7092 -2158 0
-4584 3187 -7211 0
9849 3025 7399 0
-5192 4603 5285 0
5833 -3848 -3627 0
26 8179 -9932 0
-717 -1505 -7924 0
825 7945 8152 0
-1054 -5007 -9453 0
8004 3853 6008 0
7369 -509 998 0
8469 -1008 -8423 0
-6370 -7566 6249 0
-3008 -7453 -6620 0
7765 4903 -3950 0
9741 8615 4423 0
-7672 9895 1211 0
1137 7824 9477 0
9030 565 -3866 0
958 -8249 -283 0
-6351 9953 1204 0
9136 5182 -8408 0
-5432 1275 -3469 0
4760 1749 2025 0
-4754 -6064 -5053 0
-330 1764 7849 0
-7065 5775 4093 0
-1480 1814 3697 0
-7543 -6653 -3681 0
-9724 6115 -7834 0
-2346 7753 7566 0
-8302 -6607 -4708 0
2104 6170 1398 0
-8561 -688 -6158 0
3139 -3756 3489 0
-4775 1514 8771 0
6964 -5438 -9850 0
-1221 -8380 854 0
8175 -9314 1138 0
9750 -4421 7778 0
6516 1879 -1680 0
-5332 -8719 4211 0
8505 -5223 -9240 0
4884 -9066 3826 0
4041 7280 -8045 0
9229 -86 6994 0
9764 -1276 -281 0
7126 -9980 585 0
-7722 -7669 1906 0
2822 -3880 -6127 0
439 -7449 2231 0
-4946 -7621 -8795 0
-4149 8385 -3505 0
7607 1252 6067 0
7087 7519 -3549 0
-1597 -1623 -8330 0
8186 677 -5100 0
-1738 2548 7402 0
5584 -6229 2614 0
8440 -4041 923 0
3887 -4544 3553 0
5664 -9859 -952 0
-2369 6228 641 0
-5538 -1484 -1355 0
-3538 9355 3735 0
-6435 -8773 -3013 0
-3408 -8080 -3707 0
8970 -3837 -4579 0
6078 -2941 -4599 0
8280 6996 1961 0
-7135 -9041 7947 0
9533 -803 -7854 0
1762 8445 -2597 0
-1157 743 -4691 0
-1854 -476 -6544 0
4137 1526 9660 0
6790 -9915 -1457 0
7500 2502 7871 0
-3839 8490 7316 0
1319 -8905 -1373 0
-5913 -9230 3552 0
2833 -6038 6216 0
4254 4592 1015 0
-5574 -5068 3319 0
-7303 5924 -3383 0
-1107 -9244 4217 0
5931 6293 -1181 0
864 7179 1316 0
-1132 211 3246 0
461 5728 -9915 0
5898 -9798 -6155 0
2832 -5809 6691 0
3544 362 -4632 0
8566 7015 -729 0
-9262 9433 -1292 0
9298 4705 -6623 0
-9986 -6014 -2350 0
-6012 7904 -1948 0
7 -3670 7189 0
535 1109 -1493 0
-2296 2791 1316 0
1637 -6831 3602 0
4564 4601 4097 0
-5527 -1805 4463 0
2783 7076 4922 0
6406 6862 7759 0
249 7681 -3491 0
-2880 -5750 -7952 0
-8356 471 -9085 0
-8089 1008 -3737 0
9764 -4358 2045 0
6652 2499 -3092 0
-4415 -7263 -203 0
1454 5786 6465 0
-3618 -5702 5314 0
4717 3699 6531 0
6808 -9628 9830 0
-2129 -41 4346 0
4806 -8427 -4283 0
-8760 -3268 -3663 0
-1317 3331 -1684 0
-2552 -2520 -180 0
6840 3955 -4592 0
8883 7649 -246 0
1470 4816 4932 0
-8143 -6141 -968 0
-1492 6422 3815 0
-9221 6825 7614 0
4104 -6550 847 0
9586 4434 9605 0
-8137 1106 -3697 0
-9407 5354 -7269 0
4257 -9752 7066 0
4688 8524 -9701 0
-4353 -9563 -4999 0
3624 2018 9614 0
6167 -7738 -9092 0
1614 4051 -4859 0
-7271 -7070 6672 0
-3441 2155 2583 0
2402 1812 -3994 0
-4774 -4368 -9264 0
-8128 2919 -674 0
-9419 918 1289 0
-227 8427 1676 0
-4834 979 5449 0
8161 3675 233 0
-8358 4679 -5961 0
2406 9393 -8472 0
-7989 -3032 2370 0
-37 7848 8827 0
8740 2705 1866 0
-8813 -2021 2125 0
2848 -8634 -691 0
-1932 11 6463 0
5603 -1984 5794 0
-5481 2468 -5127 0
-4776 6705 -5087 0
3197 -9182 7050 0
5804 7264 -2912 0
6018 7897 1775 0
-3577 -4374 -9117 0
6120 9110 539 0
-9178 -5379 -3065 0
-7832 -6377 -8225 0
6038 9970 5873 0
2086 -8239 6454 0
-3794 3651 9350 0
6004 -1794 3556 0
-7394 -308 9399 0
-9750 -1476 9249 0
-8387 -9239 -6148 0
-3389 -8064 -5206 0
-6167 7127 -1733 0
354 -4771 9257 0
-3553 -9979 5510 0
-6518 -7873 4749 0
-2536 -943 3885 0
3437 -803 -6931 0
367 -2794 -7542 0
-3640 934 4352 0
-7440 6285 1523 0
8812 1588 9595 0
3784 5707 8484 0
-5525 -890 -362 0
3414 2943 -5806 0
-5917 3313 -3764 0
1972 -2048 -4759 0
-6891 3519 3921 0
-3765 8201 5276 0
7722 3929 -5710 0
6775 7269 -7342 0
5800 -8524 3414 0
-2225 -336 -2178 0
-2605 8890 6295 0
-5093 4750 -2745 0
-5345 -5365 6404 0
-403 6335 7430 0
-9741 3565 -6359 0
-8508 -4624 4172 0
8678 -1879 -726 0
-4226 -4481 -4497 0
3846 -5759 -8602 0
1103 6149 -5249 0
5206 3002 -1904 0
1675 -9379 -2904 0
4935 3489 -8239 0
-6754 9517 4058 0
6687 2507 -5782 0
8177 7525 7342 0
-5186 1226 -6619 0
-6865 -670 5769 0
201 -6434 -9676 0
5576 265 9486 0
7931 8542 4804 0
4683 -6419 1738 0
7006 2360 6314 0
6716 -3220 8472 0
4768 -9850 1279 0
7538 6162 -6379 0
-6785 7617 -7303 0
4611 9667 8054 0
8262 15 -8156 0
5831 -602 3660 0
2154 -1656 -907 0
1940 -507 -2317 0
-1136 -8359 -7210 0
5116 8033 -15 0
-4843 7605 6422 0
8352 -2727 2331 0
1933 2572 2247 0
-8699 5446 8600 0
5374 -8360 6468 0
-4915 -9614 1586 0
-7300 7988 -6848 0
-1688 -5324 -827 0
-6264 3882 -7068 0
9287 -3450 -9851 0
-6647 5102 -8319 0
5305 4782 -7654 0
-5736 -6060 9431 0
-8515 -4 6137 0
8044 -1011 -4914 0
7830 4042 9539 0
2841 178 -7875 0
3387 -9746 5368 0
-2287 1019 2358 0
-2618 1491 -4209 0
-1835 3562 -6988 0
7543 2483 -7386 0
-8729 4508 3695 0
456 9042 -5253 0
-2704 -2942 8126 0
4897 -6516 1601 0
-8636 5374 -1865 0
8987 7201 6167 0
6639 -5744 1431 0
-566 -7662 3042 0
4398 -1624 6944 0
-9029 1168 1461 0
-6740 4679 1254 0
6386 4764 5147 0
9448 7304 -6204 0
-8991 -8484 767 0
-4623 9865 -4682 0
6802 749 8164 0
-2582 2074 6024 0
-1791 965 -4291 0
-7305 9657 8820 0
743 6135 5038 0
-5911 2666 -4762 0
-8481 7107 -3829 0
3050 3305 1198 0
-1405 -6962 6960 0
-9585 -5626 9461 0
5502 -6298 -8347 0
-193 8860 3119 0
7096 -8801 -5841 0
7118 -6315 3689 0
7643 -4659 -9358 0
5475 -3172 -7080 0
4204 5742 1641 0
2548 -631 -2120 0
-6027 -4746 9609 0
-2986 -1164 9596 0
809 -9476 6986 0
2258 9539 2942 0
7404 -1200 -7175 0
5822 -3501 5990 0
-9831 -9071 8476 0
364 -5554 -7024 0
1027 -1448 -2430 0
-5988 -6340 -9886 0
7592 -9335 8903 0
9366 6963 7934 0
6318 -2225 -7855 0
5225 5509 5106 0
-76 482 6906 0
-862 -8393 -6716 0
6797 7039 4313 0
9385 1233 -3260 0
-993 -9244 8717 0
423 2253 2503 0
-4618 9372 5638 0
-9137 6622 7527 0
-4641 -9228 1702 0
-5889 -8726 2359 0
-3715 -3175 -7244 0
4174 3545 699 0
1531 6177 610 0
9336 -5272 5814 0
-8452 4010 2303 0
7 -8586 2418 0
2757 6802 3052 0
-8005 -1290 3993 0
-3497 -5762 1118 0
937 2713 -2904 0
-3238 9091 -682 0
5687 -5497 4912 0
-2179 -2272 5376 0
-2280 8054 8627 0
9670 -4384 -7833 0
5573 1527 5751 0
4989 6980 -3245 0
456 8102 8621 0
5546 -3833 650 0
-8548 -8690 -3932 0
-3001 4731 2793 0
